LAMMPS (9 Nov 2011)
echo               both
dimension          ${ndim}
dimension          3d
units              si
atom_style         hybrid  bond meso
communicate        single vel yes
# create simulation box

#3D box
include            ${ndim}-model.lmp
include            3d-model.lmp
variable          dim equal 3
variable          kb       equal 1.3806503e-23

variable           Ly  equal 1.803e-3
variable           Lx  equal ${Ly}/50*20
variable           Lx  equal 0.001803/50*20
variable           Lz  equal ${Ly}/50*10
variable           Lz  equal 0.001803/50*10

variable           dx   equal 2.5e-5
variable           sdpd_rho equal 1000
variable           sdpd_rho0 equal 1000
variable           sdpd_c equal 3e-1
variable           sdpd_eta equal 1.5e-2
variable           sdpd_background equal 1.0
variable           sdpd_temp equal 1e9
variable           sdpd_mu  equal ${sdpd_eta}/${sdpd_rho} 
variable           sdpd_mu  equal 0.015/${sdpd_rho} 
variable           sdpd_mu  equal 0.015/1000 
variable          h equal 2.7*${dx}
variable          h equal 2.7*2.5e-05
variable          gx equal 0.612
variable          Nfreq equal 1000
variable          r0       equal 3^(1.0/${dim})*${dx}
variable          r0       equal 3^(1.0/3)*${dx}
variable          r0       equal 3^(1.0/3)*2.5e-05
variable          H        equal 50*${sdpd_temp}*${kb}/${r0}^2
variable          H        equal 50*1000000000*${kb}/${r0}^2
variable          H        equal 50*1000000000*1.3806503e-23/${r0}^2
variable          H        equal 50*1000000000*1.3806503e-23/3.605623926e-05^2
variable          sdpd_mass equal ${sdpd_rho}*${dx}^${dim}
variable          sdpd_mass equal 1000*${dx}^${dim}
variable          sdpd_mass equal 1000*2.5e-05^${dim}
variable          sdpd_mass equal 1000*2.5e-05^3
read_data           poly3d.txt
  1 = max bonds/atom
  orthogonal box = (0 0 0) to (0.0007212 0.001803 0.0003606)
  2 by 3 by 1 processor grid
  31755 atoms
  31755 velocities
  29373 bonds
  2 = max # of 1-2 neighbors
  2 = max # of 1-3 neighbors
  4 = max # of 1-4 neighbors
  6 = max # of special neighbors
#read_restart         sdpd.restart.80000
special_bonds   lj 1 1 1
  2 = max # of 1-2 neighbors
  2 = max # of 1-3 neighbors
  4 = max # of 1-4 neighbors
  6 = max # of special neighbors
bond_style fene

mass               * ${sdpd_mass}
mass               * 1.5625e-11
set                group all meso_rho ${sdpd_rho}
set                group all meso_rho 1000
  31755 settings made for meso_rho

# use Tait's EOS in combination with Morris' laminar viscosity.
# We set rho_0 = 1000 kg/m^3, c = 0.1 m/s, h = 6.5e-5 m.
# The dynamic viscosity is set to 1.0e-3 Pa s, corresponding to a kinematic viscosity of 1.0e-6 m^2/s
pair_style         hybrid/overlay sph/rhosum 1 sdpd
pair_coeff         * * sph/rhosum   ${h}
pair_coeff         * * sph/rhosum   6.75e-05
pair_coeff         * *    sdpd ${sdpd_rho0} ${sdpd_c} ${sdpd_eta} ${h} ${sdpd_temp} ${sdpd_background}
pair_coeff         * *    sdpd 1000 ${sdpd_c} ${sdpd_eta} ${h} ${sdpd_temp} ${sdpd_background}
pair_coeff         * *    sdpd 1000 0.3 ${sdpd_eta} ${h} ${sdpd_temp} ${sdpd_background}
pair_coeff         * *    sdpd 1000 0.3 0.015 ${h} ${sdpd_temp} ${sdpd_background}
pair_coeff         * *    sdpd 1000 0.3 0.015 6.75e-05 ${sdpd_temp} ${sdpd_background}
pair_coeff         * *    sdpd 1000 0.3 0.015 6.75e-05 1000000000 ${sdpd_background}
pair_coeff         * *    sdpd 1000 0.3 0.015 6.75e-05 1000000000 1

compute            rho_peratom all meso_rho/atom
compute            e_peratom all meso_e/atom
compute            ke_peratom all ke/atom
compute            esph all reduce sum c_e_peratom
compute            ke all ke
compute            sdpd_kin all temp
variable           etot equal c_ke+c_esph

# do full time integration for shear driver and fluid, but keep walls stationary
fix                integrate_fix_full all meso

# "profile" corrected temperature
compute         pTemp all temp/profile 1 1 0 y 10

# average velocity
compute vxav all reduce ave vx
variable  vx_cm atom vx-c_vxav
fix av_vx all ave/spatial 1 ${Nfreq} ${Nfreq} y center 0.01 v_vx_cm file vx.av ave running units reduced
fix av_vx all ave/spatial 1 1000 ${Nfreq} y center 0.01 v_vx_cm file vx.av ave running units reduced
fix av_vx all ave/spatial 1 1000 1000 y center 0.01 v_vx_cm file vx.av ave running units reduced

include            stress.lmp
variable dhist  equal 0.01
variable dhists equal 0.02
compute stress all stress/atom virial bond
variable stress_xx atom c_stress[1]
fix av_xx_stress all ave/spatial 1 ${Nfreq} ${Nfreq} y lower ${dhists} v_stress_xx file sxx.av units reduced ave one
fix av_xx_stress all ave/spatial 1 1000 ${Nfreq} y lower ${dhists} v_stress_xx file sxx.av units reduced ave one
fix av_xx_stress all ave/spatial 1 1000 1000 y lower ${dhists} v_stress_xx file sxx.av units reduced ave one
fix av_xx_stress all ave/spatial 1 1000 1000 y lower 0.02 v_stress_xx file sxx.av units reduced ave one

variable stress_yy atom c_stress[2]
fix av_yy_stress all ave/spatial 1 ${Nfreq} ${Nfreq} y lower ${dhists} v_stress_yy file syy.av units reduced ave one
fix av_yy_stress all ave/spatial 1 1000 ${Nfreq} y lower ${dhists} v_stress_yy file syy.av units reduced ave one
fix av_yy_stress all ave/spatial 1 1000 1000 y lower ${dhists} v_stress_yy file syy.av units reduced ave one
fix av_yy_stress all ave/spatial 1 1000 1000 y lower 0.02 v_stress_yy file syy.av units reduced ave one

variable stress_zz atom c_stress[3]
fix av_zz_stress all ave/spatial 1 ${Nfreq} ${Nfreq} y lower ${dhists} v_stress_zz file szz.av units reduced ave one
fix av_zz_stress all ave/spatial 1 1000 ${Nfreq} y lower ${dhists} v_stress_zz file szz.av units reduced ave one
fix av_zz_stress all ave/spatial 1 1000 1000 y lower ${dhists} v_stress_zz file szz.av units reduced ave one
fix av_zz_stress all ave/spatial 1 1000 1000 y lower 0.02 v_stress_zz file szz.av units reduced ave one

variable stress_xy atom c_stress[4]
fix av_xy_stress all ave/spatial 1 ${Nfreq} ${Nfreq} y lower ${dhist} v_stress_xy file sxy.av units reduced ave one
fix av_xy_stress all ave/spatial 1 1000 ${Nfreq} y lower ${dhist} v_stress_xy file sxy.av units reduced ave one
fix av_xy_stress all ave/spatial 1 1000 1000 y lower ${dhist} v_stress_xy file sxy.av units reduced ave one
fix av_xy_stress all ave/spatial 1 1000 1000 y lower 0.01 v_stress_xy file sxy.av units reduced ave one

variable stress_xxyy atom c_stress[1]-c_stress[2]
fix av_xxyy_stress all ave/spatial 1 ${Nfreq} ${Nfreq} y lower ${dhists} v_stress_xxyy file sxxyy.av units reduced ave one
fix av_xxyy_stress all ave/spatial 1 1000 ${Nfreq} y lower ${dhists} v_stress_xxyy file sxxyy.av units reduced ave one
fix av_xxyy_stress all ave/spatial 1 1000 1000 y lower ${dhists} v_stress_xxyy file sxxyy.av units reduced ave one
fix av_xxyy_stress all ave/spatial 1 1000 1000 y lower 0.02 v_stress_xxyy file sxxyy.av units reduced ave one

variable stress_zzyy atom c_stress[3]-c_stress[2]
fix av_zzyy_stress all ave/spatial 1 ${Nfreq} ${Nfreq} y lower ${dhists} v_stress_zzyy file szzyy.av units reduced ave one
fix av_zzyy_stress all ave/spatial 1 1000 ${Nfreq} y lower ${dhists} v_stress_zzyy file szzyy.av units reduced ave one
fix av_zzyy_stress all ave/spatial 1 1000 1000 y lower ${dhists} v_stress_zzyy file szzyy.av units reduced ave one
fix av_zzyy_stress all ave/spatial 1 1000 1000 y lower 0.02 v_stress_zzyy file szzyy.av units reduced ave one


compute stress_bond all stress/atom bond
variable stress_bond_xx atom c_stress_bond[1]
fix av_xx_bond all ave/spatial 1 ${Nfreq} ${Nfreq} y lower ${dhists} v_stress_bond_xx file sxx-bond.av units reduced ave one
fix av_xx_bond all ave/spatial 1 1000 ${Nfreq} y lower ${dhists} v_stress_bond_xx file sxx-bond.av units reduced ave one
fix av_xx_bond all ave/spatial 1 1000 1000 y lower ${dhists} v_stress_bond_xx file sxx-bond.av units reduced ave one
fix av_xx_bond all ave/spatial 1 1000 1000 y lower 0.02 v_stress_bond_xx file sxx-bond.av units reduced ave one

variable stress_bond_yy atom c_stress_bond[2]
fix av_yy_bond all ave/spatial 1 ${Nfreq} ${Nfreq} y lower ${dhists} v_stress_bond_yy file syy-bond.av units reduced ave one
fix av_yy_bond all ave/spatial 1 1000 ${Nfreq} y lower ${dhists} v_stress_bond_yy file syy-bond.av units reduced ave one
fix av_yy_bond all ave/spatial 1 1000 1000 y lower ${dhists} v_stress_bond_yy file syy-bond.av units reduced ave one
fix av_yy_bond all ave/spatial 1 1000 1000 y lower 0.02 v_stress_bond_yy file syy-bond.av units reduced ave one

variable stress_bond_zz atom c_stress_bond[3]
fix av_zz_bond all ave/spatial 1 ${Nfreq} ${Nfreq} y lower ${dhists} v_stress_bond_zz file szz-bond.av units reduced ave one
fix av_zz_bond all ave/spatial 1 1000 ${Nfreq} y lower ${dhists} v_stress_bond_zz file szz-bond.av units reduced ave one
fix av_zz_bond all ave/spatial 1 1000 1000 y lower ${dhists} v_stress_bond_zz file szz-bond.av units reduced ave one
fix av_zz_bond all ave/spatial 1 1000 1000 y lower 0.02 v_stress_bond_zz file szz-bond.av units reduced ave one

variable stress_bond_xy atom c_stress_bond[4]
fix av_xy_bond all ave/spatial 1 ${Nfreq} ${Nfreq} y lower ${dhist} v_stress_bond_xy file sxy-bond.av units reduced ave one
fix av_xy_bond all ave/spatial 1 1000 ${Nfreq} y lower ${dhist} v_stress_bond_xy file sxy-bond.av units reduced ave one
fix av_xy_bond all ave/spatial 1 1000 1000 y lower ${dhist} v_stress_bond_xy file sxy-bond.av units reduced ave one
fix av_xy_bond all ave/spatial 1 1000 1000 y lower 0.01 v_stress_bond_xy file sxy-bond.av units reduced ave one

variable stress_bond_xxyy atom c_stress_bond[1]-c_stress_bond[2]
fix av_xxyy_bond_stress all ave/spatial 1 ${Nfreq} ${Nfreq} y lower ${dhists} v_stress_bond_xxyy file sxxyy-bond.av units reduced ave one
fix av_xxyy_bond_stress all ave/spatial 1 1000 ${Nfreq} y lower ${dhists} v_stress_bond_xxyy file sxxyy-bond.av units reduced ave one
fix av_xxyy_bond_stress all ave/spatial 1 1000 1000 y lower ${dhists} v_stress_bond_xxyy file sxxyy-bond.av units reduced ave one
fix av_xxyy_bond_stress all ave/spatial 1 1000 1000 y lower 0.02 v_stress_bond_xxyy file sxxyy-bond.av units reduced ave one

variable stress_bond_zzyy atom c_stress_bond[3]-c_stress_bond[2]
fix av_zzyy_bond_stress all ave/spatial 1 ${Nfreq} ${Nfreq} y lower ${dhists} v_stress_bond_zzyy file szzyy-bond.av units reduced ave one
fix av_zzyy_bond_stress all ave/spatial 1 1000 ${Nfreq} y lower ${dhists} v_stress_bond_zzyy file szzyy-bond.av units reduced ave one
fix av_zzyy_bond_stress all ave/spatial 1 1000 1000 y lower ${dhists} v_stress_bond_zzyy file szzyy-bond.av units reduced ave one
fix av_zzyy_bond_stress all ave/spatial 1 1000 1000 y lower 0.02 v_stress_bond_zzyy file szzyy-bond.av units reduced ave one


compute stress_full all stress/atom
variable stress_full_xx atom c_stress_full[1]
fix av_xx_full all ave/spatial 1 ${Nfreq} ${Nfreq} y lower ${dhists} v_stress_full_xx file sxx-full.av units reduced ave one
fix av_xx_full all ave/spatial 1 1000 ${Nfreq} y lower ${dhists} v_stress_full_xx file sxx-full.av units reduced ave one
fix av_xx_full all ave/spatial 1 1000 1000 y lower ${dhists} v_stress_full_xx file sxx-full.av units reduced ave one
fix av_xx_full all ave/spatial 1 1000 1000 y lower 0.02 v_stress_full_xx file sxx-full.av units reduced ave one

variable stress_full_yy atom c_stress_full[2]
fix av_yy_full all ave/spatial 1 ${Nfreq} ${Nfreq} y lower ${dhists} v_stress_full_yy file syy-full.av units reduced ave one
fix av_yy_full all ave/spatial 1 1000 ${Nfreq} y lower ${dhists} v_stress_full_yy file syy-full.av units reduced ave one
fix av_yy_full all ave/spatial 1 1000 1000 y lower ${dhists} v_stress_full_yy file syy-full.av units reduced ave one
fix av_yy_full all ave/spatial 1 1000 1000 y lower 0.02 v_stress_full_yy file syy-full.av units reduced ave one

variable stress_full_zz atom c_stress_full[3]
fix av_zz_full all ave/spatial 1 ${Nfreq} ${Nfreq} y lower ${dhists} v_stress_full_zz file szz-full.av units reduced ave one
fix av_zz_full all ave/spatial 1 1000 ${Nfreq} y lower ${dhists} v_stress_full_zz file szz-full.av units reduced ave one
fix av_zz_full all ave/spatial 1 1000 1000 y lower ${dhists} v_stress_full_zz file szz-full.av units reduced ave one
fix av_zz_full all ave/spatial 1 1000 1000 y lower 0.02 v_stress_full_zz file szz-full.av units reduced ave one

variable stress_full_xy atom c_stress_full[4]
fix av_xy_full all ave/spatial 1 ${Nfreq} ${Nfreq} y lower ${dhist} v_stress_full_xy file sxy-full.av units reduced ave one
fix av_xy_full all ave/spatial 1 1000 ${Nfreq} y lower ${dhist} v_stress_full_xy file sxy-full.av units reduced ave one
fix av_xy_full all ave/spatial 1 1000 1000 y lower ${dhist} v_stress_full_xy file sxy-full.av units reduced ave one
fix av_xy_full all ave/spatial 1 1000 1000 y lower 0.01 v_stress_full_xy file sxy-full.av units reduced ave one

variable stress_full_xxyy atom c_stress_full[1]-c_stress_full[2]
fix av_xxyy_full_stress all ave/spatial 1 ${Nfreq} ${Nfreq} y lower ${dhists} v_stress_full_xxyy file sxxyy-full.av units reduced ave one
fix av_xxyy_full_stress all ave/spatial 1 1000 ${Nfreq} y lower ${dhists} v_stress_full_xxyy file sxxyy-full.av units reduced ave one
fix av_xxyy_full_stress all ave/spatial 1 1000 1000 y lower ${dhists} v_stress_full_xxyy file sxxyy-full.av units reduced ave one
fix av_xxyy_full_stress all ave/spatial 1 1000 1000 y lower 0.02 v_stress_full_xxyy file sxxyy-full.av units reduced ave one

variable stress_full_zzyy atom c_stress_full[3]-c_stress_full[2]
fix av_zzyy_full_stress all ave/spatial 1 ${Nfreq} ${Nfreq} y lower ${dhists} v_stress_full_zzyy file szzyy-full.av units reduced ave one
fix av_zzyy_full_stress all ave/spatial 1 1000 ${Nfreq} y lower ${dhists} v_stress_full_zzyy file szzyy-full.av units reduced ave one
fix av_zzyy_full_stress all ave/spatial 1 1000 1000 y lower ${dhists} v_stress_full_zzyy file szzyy-full.av units reduced ave one
fix av_zzyy_full_stress all ave/spatial 1 1000 1000 y lower 0.02 v_stress_full_zzyy file szzyy-full.av units reduced ave one

variable dhist delete
dump               dump_id all custom 100 dump*.dat id type x y z vx vy vz c_rho_peratom
dump_modify        dump_id first yes
dump_modify        dump_id sort id
dump_modify        dump_id pad 8

dump               dump_dcd all dcd 100 dump.dcd

thermo_style       custom step c_sdpd_kin c_pTemp
thermo_modify      norm no
thermo             100

include            ${ndim}-image.lmp
include            3d-image.lmp
variable  adiam equal 0.5*${dx}
variable  adiam equal 0.5*2.5e-05
variable  abond equal 0.25*${dx}
variable  abond equal 0.25*2.5e-05
variable  ximgsize equal 300
variable  yimgsize equal round(${ximgsize}*${Ly}/${Lx})
variable  yimgsize equal round(300*${Ly}/${Lx})
variable  yimgsize equal round(300*0.001803/${Lx})
variable  yimgsize equal round(300*0.001803/0.0007212)
variable  vlx     atom vx*100
dump imgDump all image 100 image.*.jpg type type atom no bond atom ${abond} adiam ${adiam} view 0 0 zoom 3.5  box yes 0.01
dump imgDump all image 100 image.*.jpg type type atom no bond atom 6.25e-06 adiam ${adiam} view 0 0 zoom 3.5  box yes 0.01
dump imgDump all image 100 image.*.jpg type type atom no bond atom 6.25e-06 adiam 1.25e-05 view 0 0 zoom 3.5  box yes 0.01
dump_modify        imgDump pad 9

variable  adiam delete
variable  abond delete
variable ximgsize delete
variable yimgsize delete

variable           eps equal 0.25*${dx}
variable           eps equal 0.25*2.5e-05
neighbor           ${eps} bin
neighbor           6.25e-06 bin
variable           eps delete
neigh_modify       every 1
include            settimestep.lmp
# "viscouse" dt
variable dt_eta equal 1/8.0*${dx}*${dx}/(${sdpd_mu})
variable dt_eta equal 1/8.0*2.5e-05*${dx}/(${sdpd_mu})
variable dt_eta equal 1/8.0*2.5e-05*2.5e-05/(${sdpd_mu})
variable dt_eta equal 1/8.0*2.5e-05*2.5e-05/(1.5e-05)

# sound speed dt
if "${sdpd_c}>0" then "variable dt_c equal 1/4.0*${dx}/${sdpd_c}" else "variable dt_c equal 1e30"
variable dt_c equal 1/4.0*${dx}/${sdpd_c}
variable dt_c equal 1/4.0*2.5e-05/${sdpd_c}variable dt_c equal 1/4.0*2.5e-05/0.3
if "${dt_c}>${dt_eta}" then "variable dt equal ${dt_eta}" else "variable dt equal ${dt_c}"
variable dt equal ${dt_eta}
variable dt equal 5.208333333e-06
print "(settimestep) dt_c dt_eta dt ${dt_c} ${dt_eta} ${dt}"
(settimestep) dt_c dt_eta dt 2.083333333e-05 5.208333333e-06 5.208333333e-06
timestep           ${dt}
timestep           5.208333333e-06

restart 10000 sdpd.restart

#include           fene.lmp

bond_coeff 1 ${H} ${r0}  0 0
bond_coeff 1 0.0005309979471 ${r0}  0 0
bond_coeff 1 0.0005309979471 3.605623926e-05  0 0
variable bodyfx atom mass*${gx}*((y>${Ly}/2.0)-(y<${Ly}/2.0))
variable bodyfx atom mass*0.612*((y>${Ly}/2.0)-(y<${Ly}/2.0))
variable bodyfx atom mass*0.612*((y>0.001803/2.0)-(y<${Ly}/2.0))
variable bodyfx atom mass*0.612*((y>0.001803/2.0)-(y<0.001803/2.0))
fix reverce_periodic all addforce v_bodyfx 0.0 0.0 

run   1000000 every 1000 "velocity all zero linear"
WARNING: Use special bonds = 0,1,1 with bond style fene (bond_fene.cpp:189)
Memory usage per processor = 12.146 Mbytes
Step sdpd_kin pTemp 
       0            0            0 
     100 9.9495226e+08 9.9483985e+08 
     200 9.8746208e+08 9.8709111e+08 
     300 9.8428429e+08 9.8390677e+08 
     400 9.8023868e+08 9.7971068e+08 
     500 9.757105e+08 9.7508238e+08 
     600 9.7991674e+08 9.7903544e+08 
     700 9.8406784e+08 9.8300411e+08 
     800 9.8181857e+08 9.8071796e+08 
     900 9.8337483e+08 9.8183905e+08 
    1000 9.7582776e+08 9.7407494e+08 
Loop time of 1265.03 on 6 procs for 1000 steps with 31755 atoms

Pair  time (%) = 940.462 (74.3431)
Bond  time (%) = 1.27904 (0.101107)
Neigh time (%) = 8.44236 (0.667364)
Comm  time (%) = 224.045 (17.7106)
Outpt time (%) = 3.79118 (0.299691)
Other time (%) = 87.0107 (6.87815)

Nlocal:    5292.5 ave 5400 max 5215 min
Histogram: 2 0 0 1 1 0 0 1 0 1
Nghost:    8002.5 ave 8138 max 7845 min
Histogram: 1 1 0 0 0 0 2 1 0 1
Neighs:    297745 ave 308277 max 288296 min
Histogram: 1 0 1 1 1 0 0 0 1 1
FullNghs: 595489 ave 616267 max 576349 min
Histogram: 1 0 1 1 1 0 0 0 1 1

Total # of neighbors = 3572936
Ave neighs/atom = 112.516
Ave special neighs/atom = 5.09986
Neighbor list builds = 100
Dangerous builds = 100
velocity all zero linear
WARNING: Use special bonds = 0,1,1 with bond style fene (bond_fene.cpp:189)
Memory usage per processor = 18.1262 Mbytes
Step sdpd_kin pTemp 
    1000 9.7582776e+08 9.7407494e+08 
    1100 9.7982152e+08 9.7791151e+08 
    1200 9.8790188e+08 9.8581629e+08 
    1300 9.8743722e+08 9.8502682e+08 
    1400 9.8819123e+08 9.8570884e+08 
    1500 9.9080452e+08 9.8818517e+08 
    1600 9.8553203e+08 9.8247995e+08 
    1700 9.871174e+08 9.8414969e+08 
    1800 9.9579088e+08 9.9252743e+08 
    1900 9.9543579e+08 9.9203763e+08 
    2000 9.8947818e+08 9.8575326e+08 
Loop time of 1277.99 on 6 procs for 1000 steps with 31755 atoms

Pair  time (%) = 937.67 (73.3707)
Bond  time (%) = 1.44666 (0.113198)
Neigh time (%) = 8.19958 (0.6416)
Comm  time (%) = 238.458 (18.6588)
Outpt time (%) = 3.76375 (0.294505)
Other time (%) = 88.4523 (6.92121)

Nlocal:    5292.5 ave 5408 max 5201 min
Histogram: 1 0 2 1 0 0 0 1 0 1
Nghost:    7840.17 ave 7925 max 7701 min
Histogram: 1 1 0 0 0 0 0 1 1 2
Neighs:    296340 ave 306924 max 290617 min
Histogram: 2 2 0 0 0 0 0 1 0 1
FullNghs: 592680 ave 613046 max 581830 min
Histogram: 3 1 0 0 0 0 0 0 1 1

Total # of neighbors = 3556078
Ave neighs/atom = 111.985
Ave special neighs/atom = 5.09986
Neighbor list builds = 100
Dangerous builds = 100
velocity all zero linear
WARNING: Use special bonds = 0,1,1 with bond style fene (bond_fene.cpp:189)
Memory usage per processor = 18.1262 Mbytes
Step sdpd_kin pTemp 
    2000 9.8947818e+08 9.8575326e+08 
    2100 9.9084607e+08 9.8687396e+08 
    2200 9.8616629e+08 9.8226112e+08 
    2300 9.9492265e+08 9.9084787e+08 
    2400 9.8365375e+08 9.7933133e+08 
    2500 9.9014902e+08 9.8559859e+08 
    2600 9.8454864e+08 9.7970457e+08 
    2700 9.9226907e+08 9.8727702e+08 
    2800 9.9142421e+08 9.8629739e+08 
    2900 9.9533342e+08 9.8978349e+08 
    3000 9.8643431e+08 9.8047648e+08 
Loop time of 1297.85 on 6 procs for 1000 steps with 31755 atoms

Pair  time (%) = 938.201 (72.2889)
Bond  time (%) = 1.44405 (0.111265)
Neigh time (%) = 8.21883 (0.633265)
Comm  time (%) = 261.531 (20.1511)
Outpt time (%) = 4.24225 (0.326867)
Other time (%) = 84.2126 (6.48862)

Nlocal:    5292.5 ave 5386 max 5199 min
Histogram: 1 0 0 2 1 0 0 0 1 1
Nghost:    7814.17 ave 7960 max 7630 min
Histogram: 1 0 0 2 0 0 0 1 1 1
Neighs:    297914 ave 307503 max 289199 min
Histogram: 1 0 0 2 1 0 0 1 0 1
FullNghs: 595828 ave 614228 max 579298 min
Histogram: 1 0 1 1 1 0 0 1 0 1

Total # of neighbors = 3574966
Ave neighs/atom = 112.58
Ave special neighs/atom = 5.09986
Neighbor list builds = 100
Dangerous builds = 100
velocity all zero linear
WARNING: Use special bonds = 0,1,1 with bond style fene (bond_fene.cpp:189)
Memory usage per processor = 18.8891 Mbytes
Step sdpd_kin pTemp 
    3000 9.8643429e+08 9.8047648e+08 
    3100 9.9850041e+08 9.9252867e+08 
    3200 9.8868147e+08 9.8257278e+08 
    3300 1.0008114e+09 9.9397379e+08 
    3400 9.9735059e+08 9.9060296e+08 
    3500 9.9050728e+08 9.8386406e+08 
    3600 9.9959258e+08 9.9263887e+08 
    3700 9.9580132e+08 9.8866663e+08 
    3800 9.9562247e+08 9.8823082e+08 
    3900 9.9346568e+08 9.8565206e+08 
    4000 9.9027433e+08 9.8197211e+08 
Loop time of 1288.4 on 6 procs for 1000 steps with 31755 atoms

Pair  time (%) = 931.199 (72.2756)
Bond  time (%) = 1.40455 (0.109015)
Neigh time (%) = 8.04418 (0.624354)
Comm  time (%) = 260.143 (20.1911)
Outpt time (%) = 3.48011 (0.270111)
Other time (%) = 84.1304 (6.52983)

Nlocal:    5292.5 ave 5383 max 5126 min
Histogram: 1 0 1 0 0 0 0 0 3 1
Nghost:    7842.83 ave 7914 max 7718 min
Histogram: 1 0 0 0 0 1 0 3 0 1
Neighs:    299279 ave 307657 max 285331 min
Histogram: 1 0 1 0 0 0 0 1 1 2
FullNghs: 598559 ave 614887 max 570969 min
Histogram: 1 1 0 0 0 0 0 0 2 2

Total # of neighbors = 3591352
Ave neighs/atom = 113.096
Ave special neighs/atom = 5.09986
Neighbor list builds = 100
Dangerous builds = 100
velocity all zero linear
WARNING: Use special bonds = 0,1,1 with bond style fene (bond_fene.cpp:189)
Memory usage per processor = 18.1262 Mbytes
Step sdpd_kin pTemp 
    4000 9.9027426e+08 9.8197211e+08 
    4100 9.9212153e+08 9.8419863e+08 
    4200 9.944473e+08 9.8676716e+08 
    4300 1.0032567e+09 9.9529751e+08 
    4400 9.9897387e+08 9.9092599e+08 
    4500 1.0012718e+09 9.9328618e+08 
    4600 9.9943023e+08 9.9133636e+08 
    4700 9.9028923e+08 9.8222545e+08 
    4800 9.9009729e+08 9.8197599e+08 
    4900 9.9644072e+08 9.882314e+08 
    5000 9.9813065e+08 9.9010245e+08 
Loop time of 1312.28 on 6 procs for 1000 steps with 31755 atoms

Pair  time (%) = 944.247 (71.9548)
Bond  time (%) = 1.40624 (0.10716)
Neigh time (%) = 8.13933 (0.620245)
Comm  time (%) = 270.143 (20.5858)
Outpt time (%) = 4.06474 (0.309747)
Other time (%) = 84.2773 (6.42222)

Nlocal:    5292.5 ave 5535 max 5140 min
Histogram: 2 0 1 0 1 1 0 0 0 1
Nghost:    7827.67 ave 7940 max 7742 min
Histogram: 2 0 1 0 1 0 0 0 1 1
Neighs:    301400 ave 324282 max 289016 min
Histogram: 2 1 0 0 2 0 0 0 0 1
FullNghs: 602801 ave 648951 max 579303 min
Histogram: 2 1 0 0 2 0 0 0 0 1

Total # of neighbors = 3616806
Ave neighs/atom = 113.897
Ave special neighs/atom = 5.09986
Neighbor list builds = 100
Dangerous builds = 100
velocity all zero linear
WARNING: Use special bonds = 0,1,1 with bond style fene (bond_fene.cpp:189)
Memory usage per processor = 18.1262 Mbytes
Step sdpd_kin pTemp 
    5000 9.9813062e+08 9.9010245e+08 
    5100 9.9128665e+08 9.8293982e+08 
    5200 1.000136e+09 9.9175548e+08 
    5300 9.9679655e+08 9.8804963e+08 
    5400 9.9246738e+08 9.8374038e+08 
    5500 9.9750442e+08 9.8861892e+08 
    5600 9.9932386e+08  9.90243e+08 
    5700 1.0000276e+09 9.9117059e+08 
    5800 9.9359348e+08 9.8467074e+08 
    5900 9.9929298e+08 9.9013257e+08 
    6000 9.9632483e+08 9.8696087e+08 
Loop time of 1359.2 on 6 procs for 1000 steps with 31755 atoms

Pair  time (%) = 958.844 (70.545)
Bond  time (%) = 1.4179 (0.104319)
Neigh time (%) = 8.18649 (0.602304)
Comm  time (%) = 301.103 (22.1531)
Outpt time (%) = 4.00701 (0.294807)
Other time (%) = 85.6364 (6.30053)

Nlocal:    5292.5 ave 5586 max 5175 min
Histogram: 3 1 0 0 1 0 0 0 0 1
Nghost:    7796.67 ave 7931 max 7721 min
Histogram: 2 1 0 0 1 1 0 0 0 1
Neighs:    303094 ave 331817 max 291671 min
Histogram: 3 1 0 0 1 0 0 0 0 1
FullNghs: 606189 ave 664747 max 584181 min
Histogram: 3 1 0 0 1 0 0 0 0 1

Total # of neighbors = 3637132
Ave neighs/atom = 114.537
Ave special neighs/atom = 5.09986
Neighbor list builds = 100
Dangerous builds = 100
velocity all zero linear
WARNING: Use special bonds = 0,1,1 with bond style fene (bond_fene.cpp:189)
Memory usage per processor = 18.1262 Mbytes
Step sdpd_kin pTemp 
    6000 9.9632481e+08 9.8696087e+08 
    6100 1.0062058e+09 9.9686271e+08 
    6200 9.9608772e+08 9.8666302e+08 
    6300 1.0020687e+09 9.9216068e+08 
    6400 1.0017123e+09 9.9164986e+08 
    6500 9.9854729e+08 9.8839443e+08 
    6600 9.9951103e+08 9.8921874e+08 
    6700 1.003866e+09 9.9340804e+08 
    6800 1.0040981e+09 9.9355489e+08 
    6900 1.0015407e+09 9.9092024e+08 
    7000 9.9839978e+08 9.8783193e+08 
Loop time of 1381.05 on 6 procs for 1000 steps with 31755 atoms

Pair  time (%) = 965.097 (69.8812)
Bond  time (%) = 1.45412 (0.105291)
Neigh time (%) = 8.15997 (0.590851)
Comm  time (%) = 318.797 (23.0836)
Outpt time (%) = 3.79084 (0.274489)
Other time (%) = 83.7557 (6.06462)

Nlocal:    5292.5 ave 5649 max 5125 min
Histogram: 2 2 0 0 0 1 0 0 0 1
Nghost:    7859.83 ave 7959 max 7782 min
Histogram: 1 1 0 0 1 2 0 0 0 1
Neighs:    304656 ave 340784 max 288813 min
Histogram: 2 2 0 0 1 0 0 0 0 1
FullNghs: 609312 ave 682199 max 576017 min
Histogram: 2 2 0 0 1 0 0 0 0 1

Total # of neighbors = 3655870
Ave neighs/atom = 115.127
Ave special neighs/atom = 5.09986
Neighbor list builds = 100
Dangerous builds = 100
velocity all zero linear
WARNING: Use special bonds = 0,1,1 with bond style fene (bond_fene.cpp:189)
Memory usage per processor = 18.1262 Mbytes
Step sdpd_kin pTemp 
    7000 9.9839969e+08 9.8783193e+08 
    7100 1.0072321e+09 9.9618442e+08 
    7200 1.0032403e+09 9.9241533e+08 
    7300 1.0097475e+09 9.9838869e+08 
    7400 9.9912633e+08 9.8773416e+08 
    7500 1.0002972e+09 9.8906016e+08 
    7600 1.0068225e+09 9.9563528e+08 
    7700 1.002475e+09 9.9071253e+08 
    7800 1.0054938e+09 9.9409472e+08 
    7900 9.9525486e+08 9.8353941e+08 
    8000   1.0037e+09 9.9216131e+08 
Loop time of 1359.49 on 6 procs for 1000 steps with 31755 atoms

Pair  time (%) = 950.294 (69.9008)
Bond  time (%) = 1.40247 (0.103162)
Neigh time (%) = 7.97685 (0.586754)
Comm  time (%) = 311.693 (22.9272)
Outpt time (%) = 3.72716 (0.274159)
Other time (%) = 84.396 (6.20792)

Nlocal:    5292.5 ave 5728 max 5099 min
Histogram: 3 0 0 2 0 0 0 0 0 1
Nghost:    7818.33 ave 8133 max 7629 min
Histogram: 2 0 1 0 1 1 0 0 0 1
Neighs:    305844 ave 349837 max 284394 min
Histogram: 1 2 0 2 0 0 0 0 0 1
FullNghs: 611688 ave 699244 max 567824 min
Histogram: 1 2 0 2 0 0 0 0 0 1

Total # of neighbors = 3670126
Ave neighs/atom = 115.576
Ave special neighs/atom = 5.09986
Neighbor list builds = 100
Dangerous builds = 100
velocity all zero linear
WARNING: Use special bonds = 0,1,1 with bond style fene (bond_fene.cpp:189)
Memory usage per processor = 18.1262 Mbytes
Step sdpd_kin pTemp 
    8000 1.0036998e+09 9.9216131e+08 
    8100 1.0080347e+09 9.959977e+08 
    8200 1.0016331e+09 9.8951727e+08 
    8300 1.0106101e+09 9.9880343e+08 
    8400 1.0062385e+09 9.9408127e+08 
    8500 1.000071e+09 9.8768105e+08 
    8600 1.0135157e+09 1.0011366e+09 
    8700 1.0027232e+09  9.90608e+08 
    8800 1.0136891e+09 1.0016207e+09 
    8900 1.0115769e+09 9.9912683e+08 
    9000 1.0045704e+09 9.9177047e+08 
Loop time of 1328.88 on 6 procs for 1000 steps with 31755 atoms

Pair  time (%) = 940.511 (70.7746)
Bond  time (%) = 1.38713 (0.104383)
Neigh time (%) = 7.93004 (0.596746)
Comm  time (%) = 291.392 (21.9276)
Outpt time (%) = 3.46087 (0.260435)
Other time (%) = 84.2011 (6.33624)

Nlocal:    5292.5 ave 5559 max 5044 min
Histogram: 1 0 1 0 2 0 0 1 0 1
Nghost:    7765.17 ave 7945 max 7497 min
Histogram: 1 0 0 1 0 0 2 0 0 2
Neighs:    306321 ave 334126 max 287217 min
Histogram: 1 1 1 0 1 0 1 0 0 1
FullNghs: 612641 ave 667947 max 574527 min
Histogram: 1 1 0 1 1 0 1 0 0 1

Total # of neighbors = 3675848
Ave neighs/atom = 115.757
Ave special neighs/atom = 5.09986
Neighbor list builds = 100
Dangerous builds = 100
velocity all zero linear
WARNING: Use special bonds = 0,1,1 with bond style fene (bond_fene.cpp:189)
Memory usage per processor = 18.8891 Mbytes
Step sdpd_kin pTemp 
    9000 1.0045703e+09 9.9177047e+08 
    9100 1.0068453e+09 9.9422054e+08 
    9200 1.0077018e+09 9.9468349e+08 
    9300 1.0108916e+09 9.9698471e+08 
    9400 1.0129519e+09 9.9859206e+08 
    9500 1.0126291e+09 9.9814901e+08 
    9600 1.000073e+09 9.8533207e+08 
    9700 1.0046228e+09 9.8955794e+08 
    9800 1.0123823e+09 9.9714145e+08 
    9900 1.0124973e+09 9.9632342e+08 
   10000 1.0123378e+09 9.9661237e+08 
Loop time of 1344.57 on 6 procs for 1000 steps with 31755 atoms

Pair  time (%) = 948.427 (70.5375)
Bond  time (%) = 1.41219 (0.105029)
Neigh time (%) = 8.02956 (0.597183)
Comm  time (%) = 299.377 (22.2656)
Outpt time (%) = 3.6289 (0.269893)
Other time (%) = 83.6977 (6.22486)

Nlocal:    5292.5 ave 5504 max 5190 min
Histogram: 1 3 0 0 0 1 0 0 0 1
Nghost:    7887.33 ave 8020 max 7591 min
Histogram: 1 0 0 0 0 1 1 0 0 3
Neighs:    305454 ave 325352 max 295116 min
Histogram: 2 1 0 1 0 1 0 0 0 1
FullNghs: 610909 ave 651032 max 589537 min
Histogram: 2 0 2 0 0 1 0 0 0 1

Total # of neighbors = 3665454
Ave neighs/atom = 115.429
Ave special neighs/atom = 5.09986
Neighbor list builds = 100
Dangerous builds = 99
velocity all zero linear
WARNING: Use special bonds = 0,1,1 with bond style fene (bond_fene.cpp:189)
Memory usage per processor = 18.8891 Mbytes
Step sdpd_kin pTemp 
   10000 1.0123378e+09 9.9661237e+08 
   10100 1.0088221e+09 9.9270152e+08 
   10200 1.0176919e+09 1.0012391e+09 
   10300 1.013898e+09 9.9726786e+08 
   10400 1.0131848e+09 9.9631837e+08 
   10500 1.012942e+09 9.9608626e+08 
   10600 1.0109338e+09 9.9409269e+08 
   10700 1.0148769e+09 9.9807611e+08 
   10800 1.0124958e+09 9.9492955e+08 
   10900 1.0174511e+09 1.0001194e+09 
   11000 1.0153248e+09 9.973248e+08 
Loop time of 1319.72 on 6 procs for 1000 steps with 31755 atoms

Pair  time (%) = 953.284 (72.2337)
Bond  time (%) = 1.40538 (0.106491)
Neigh time (%) = 7.99205 (0.605586)
Comm  time (%) = 268.453 (20.3416)
Outpt time (%) = 3.69147 (0.279716)
Other time (%) = 84.8957 (6.43285)

Nlocal:    5292.5 ave 5427 max 5154 min
Histogram: 1 1 1 0 0 0 0 1 1 1
Nghost:    7762.17 ave 8007 max 7572 min
Histogram: 1 1 0 2 0 0 0 1 0 1
Neighs:    306107 ave 317667 max 292290 min
Histogram: 1 0 1 1 0 0 0 0 2 1
FullNghs: 612215 ave 635043 max 584122 min
Histogram: 1 0 0 2 0 0 0 0 2 1

Total # of neighbors = 3673288
Ave neighs/atom = 115.676
Ave special neighs/atom = 5.09986
Neighbor list builds = 100
Dangerous builds = 100
velocity all zero linear
WARNING: Use special bonds = 0,1,1 with bond style fene (bond_fene.cpp:189)
Memory usage per processor = 18.8891 Mbytes
Step sdpd_kin pTemp 
   11000 1.0153247e+09 9.973248e+08 
   11100 1.0171626e+09 1.0001492e+09 
   11200 1.0130199e+09 9.9504678e+08 
   11300 1.0221242e+09 1.004291e+09 
   11400 1.013677e+09 9.9556706e+08 
   11500 1.0161596e+09 9.9765998e+08 
   11600 1.0134354e+09 9.952293e+08 
   11700 1.0146919e+09 9.967264e+08 
   11800 1.0202491e+09 1.0020851e+09 
   11900 1.0220551e+09 1.0033082e+09 
   12000 1.0082004e+09 9.8944675e+08 
Loop time of 1284.6 on 6 procs for 1000 steps with 31755 atoms

Pair  time (%) = 952.235 (74.1271)
Bond  time (%) = 1.4381 (0.111949)
Neigh time (%) = 8.05905 (0.62736)
Comm  time (%) = 237.369 (18.4781)
Outpt time (%) = 3.22484 (0.251039)
Other time (%) = 82.2712 (6.40444)

Nlocal:    5292.5 ave 5419 max 5168 min
Histogram: 3 0 0 0 0 0 0 0 0 3
Nghost:    7714.33 ave 8038 max 7481 min
Histogram: 1 0 1 2 0 1 0 0 0 1
Neighs:    306581 ave 323305 max 290679 min
Histogram: 2 0 1 0 0 0 0 1 0 2
FullNghs: 613162 ave 645148 max 579127 min
Histogram: 2 0 1 0 0 0 0 0 1 2

Total # of neighbors = 3678970
Ave neighs/atom = 115.855
Ave special neighs/atom = 5.09986
Neighbor list builds = 100
Dangerous builds = 100
velocity all zero linear
WARNING: Use special bonds = 0,1,1 with bond style fene (bond_fene.cpp:189)
Memory usage per processor = 18.8891 Mbytes
Step sdpd_kin pTemp 
   12000 1.0082002e+09 9.8944675e+08 
   12100 1.0177792e+09 9.9948442e+08 
   12200 1.0227944e+09 1.0047491e+09 
   12300 1.0185351e+09 1.000428e+09 
   12400 1.0205023e+09 1.001719e+09 
   12500 1.0152371e+09 9.9669353e+08 
   12600 1.0192167e+09 1.0005996e+09 
   12700 1.0217651e+09 1.002912e+09 
   12800 1.0158025e+09 9.9703131e+08 
   12900 1.0191976e+09 1.0005269e+09 
   13000 1.0178139e+09 9.9858885e+08 
Loop time of 1304.9 on 6 procs for 1000 steps with 31755 atoms

Pair  time (%) = 956.717 (73.3173)
Bond  time (%) = 1.39469 (0.106881)
Neigh time (%) = 7.98226 (0.611715)
Comm  time (%) = 251.275 (19.2562)
Outpt time (%) = 3.75783 (0.287978)
Other time (%) = 83.7731 (6.41989)

Nlocal:    5292.5 ave 5394 max 5202 min
Histogram: 2 1 0 0 0 0 0 1 0 2
Nghost:    7670.83 ave 8020 max 7327 min
Histogram: 2 0 0 0 0 1 1 1 0 1
Neighs:    306294 ave 317540 max 294111 min
Histogram: 1 0 1 1 0 1 0 0 0 2
FullNghs: 612588 ave 637437 max 587481 min
Histogram: 1 0 2 0 0 1 0 0 1 1

Total # of neighbors = 3675528
Ave neighs/atom = 115.746
Ave special neighs/atom = 5.09986
Neighbor list builds = 100
Dangerous builds = 100
velocity all zero linear
WARNING: Use special bonds = 0,1,1 with bond style fene (bond_fene.cpp:189)
Memory usage per processor = 18.8891 Mbytes
Step sdpd_kin pTemp 
   13000 1.0178137e+09 9.9858885e+08 
   13100 1.0160723e+09 9.9706706e+08 
   13200 1.0159602e+09 9.9682205e+08 
   13300 1.0183279e+09 9.9905877e+08 
   13400 1.016006e+09 9.9659502e+08 
   13500 1.0258657e+09 1.0065113e+09 
   13600 1.0211374e+09 1.0017319e+09 
   13700 1.0253018e+09 1.0054008e+09 
   13800 1.0144488e+09 9.9444688e+08 
   13900 1.0204833e+09 1.0003104e+09 
   14000 1.0166323e+09 9.965788e+08 
Loop time of 1295.55 on 6 procs for 1000 steps with 31755 atoms

Pair  time (%) = 955.398 (73.7447)
Bond  time (%) = 1.37862 (0.106412)
Neigh time (%) = 8.03374 (0.620104)
Comm  time (%) = 241.963 (18.6765)
Outpt time (%) = 4.0547 (0.312972)
Other time (%) = 84.7192 (6.53926)

Nlocal:    5292.5 ave 5435 max 5029 min
Histogram: 1 0 0 0 0 0 2 1 0 2
Nghost:    7855 ave 8098 max 7615 min
Histogram: 1 0 1 1 0 1 0 0 1 1
Neighs:    305528 ave 318757 max 277451 min
Histogram: 1 0 0 0 0 1 1 0 1 2
FullNghs: 611056 ave 637496 max 554799 min
Histogram: 1 0 0 0 0 1 1 0 1 2

Total # of neighbors = 3666338
Ave neighs/atom = 115.457
Ave special neighs/atom = 5.09986
Neighbor list builds = 100
Dangerous builds = 100
velocity all zero linear
WARNING: Use special bonds = 0,1,1 with bond style fene (bond_fene.cpp:189)
Memory usage per processor = 18.891 Mbytes
Step sdpd_kin pTemp 
   14000 1.0166321e+09 9.965788e+08 
   14100 1.0246148e+09 1.0045115e+09 
   14200 1.0207481e+09 1.0000045e+09 
   14300 1.032748e+09 1.0119982e+09 
   14400 1.019973e+09 9.9882897e+08 
   14500 1.0212048e+09 1.000309e+09 
   14600 1.0244356e+09 1.0034735e+09 
   14700 1.0165464e+09 9.9546869e+08 
   14800 1.0196869e+09 9.9845748e+08 
   14900 1.019417e+09 9.9762184e+08 
   15000 1.0221269e+09  1.00009e+09 
Loop time of 1036.85 on 6 procs for 1000 steps with 31755 atoms

Pair  time (%) = 800.265 (77.1823)
Bond  time (%) = 1.15529 (0.111423)
Neigh time (%) = 6.69823 (0.646017)
Comm  time (%) = 165.624 (15.9738)
Outpt time (%) = 2.91991 (0.281613)
Other time (%) = 60.1878 (5.80487)

Nlocal:    5292.5 ave 5413 max 5075 min
Histogram: 1 0 0 0 1 0 0 2 0 2
Nghost:    7807.5 ave 8065 max 7617 min
Histogram: 2 1 0 1 0 0 0 0 0 2
Neighs:    305879 ave 319114 max 280147 min
Histogram: 1 0 0 0 0 0 2 1 0 2
FullNghs: 611758 ave 638778 max 559235 min
Histogram: 1 0 0 0 0 0 2 0 1 2

Total # of neighbors = 3670548
Ave neighs/atom = 115.59
Ave special neighs/atom = 5.09986
Neighbor list builds = 100
Dangerous builds = 100
velocity all zero linear
WARNING: Use special bonds = 0,1,1 with bond style fene (bond_fene.cpp:189)
Memory usage per processor = 18.891 Mbytes
Step sdpd_kin pTemp 
   15000 1.0221268e+09  1.00009e+09 
   15100 1.0163571e+09 9.9412722e+08 
   15200 1.0286549e+09 1.0067173e+09 
   15300 1.0171473e+09 9.9573722e+08 
   15400 1.0179783e+09 9.9638141e+08 
   15500 1.0222535e+09 1.0008783e+09 
   15600 1.0140891e+09 9.9191088e+08 
   15700 1.0189709e+09 9.969521e+08 
   15800 1.0215937e+09 9.9986023e+08 
   15900 1.026163e+09 1.0037692e+09 
   16000 1.0180337e+09 9.9597598e+08 
Loop time of 675.704 on 6 procs for 1000 steps with 31755 atoms

Pair  time (%) = 609.937 (90.2668)
Bond  time (%) = 0.787076 (0.116482)
Neigh time (%) = 5.18145 (0.766821)
Comm  time (%) = 23.3338 (3.45326)
Outpt time (%) = 2.10568 (0.311627)
Other time (%) = 34.3596 (5.085)

Nlocal:    5292.5 ave 5382 max 5185 min
Histogram: 1 0 0 2 0 0 0 0 2 1
Nghost:    7758.5 ave 8098 max 7574 min
Histogram: 1 1 1 2 0 0 0 0 0 1
Neighs:    304333 ave 314016 max 291034 min
Histogram: 1 0 0 2 0 0 0 0 1 2
FullNghs: 608666 ave 627586 max 580591 min
Histogram: 1 0 0 2 0 0 0 0 1 2

Total # of neighbors = 3651998
Ave neighs/atom = 115.005
Ave special neighs/atom = 5.09986
Neighbor list builds = 100
Dangerous builds = 100
velocity all zero linear
WARNING: Use special bonds = 0,1,1 with bond style fene (bond_fene.cpp:189)
Memory usage per processor = 18.891 Mbytes
Step sdpd_kin pTemp 
   16000 1.0180337e+09 9.9597598e+08 
   16100 1.0212555e+09 9.987114e+08 
   16200 1.0245151e+09 1.0021712e+09 
   16300 1.0262213e+09 1.0033762e+09 
   16400 1.0251502e+09 1.0024612e+09 
   16500 1.030955e+09 1.0081364e+09 
   16600 1.0251337e+09 1.0022863e+09 
   16700 1.0297937e+09 1.0068054e+09 
   16800 1.0181117e+09 9.953954e+08 
   16900 1.0201884e+09 9.9742613e+08 
   17000 1.0295553e+09 1.0062025e+09 
Loop time of 684.93 on 6 procs for 1000 steps with 31755 atoms

Pair  time (%) = 607.007 (88.6232)
Bond  time (%) = 0.787589 (0.114988)
Neigh time (%) = 5.15986 (0.753341)
Comm  time (%) = 35.4764 (5.17956)
Outpt time (%) = 2.10455 (0.307265)
Other time (%) = 34.3948 (5.02164)

Nlocal:    5292.5 ave 5494 max 5175 min
Histogram: 2 0 1 0 2 0 0 0 0 1
Nghost:    7744.67 ave 7978 max 7539 min
Histogram: 1 1 0 1 1 0 0 0 0 2
Neighs:    304750 ave 325508 max 295818 min
Histogram: 2 0 2 1 0 0 0 0 0 1
FullNghs: 609501 ave 652916 max 591727 min
Histogram: 2 0 2 1 0 0 0 0 0 1

Total # of neighbors = 3657004
Ave neighs/atom = 115.163
Ave special neighs/atom = 5.09986
Neighbor list builds = 100
Dangerous builds = 100
velocity all zero linear
WARNING: Use special bonds = 0,1,1 with bond style fene (bond_fene.cpp:189)
Memory usage per processor = 18.891 Mbytes
Step sdpd_kin pTemp 
   17000 1.0295553e+09 1.0062025e+09 
   17100 1.0212259e+09 9.981785e+08 
   17200 1.0205887e+09 9.9771729e+08 
   17300 1.0226789e+09 9.9920301e+08 
   17400 1.0281994e+09 1.0049849e+09 
   17500 1.0246583e+09 1.0010893e+09 
   17600 1.0337857e+09 1.0100064e+09 
   17700 1.0361154e+09 1.0124624e+09 
   17800 1.0249427e+09 1.0011171e+09 
   17900 1.0236979e+09 9.9943533e+08 
   18000 1.0269282e+09 1.0026673e+09 
Loop time of 696.806 on 6 procs for 1000 steps with 31755 atoms

Pair  time (%) = 605.477 (86.8932)
Bond  time (%) = 0.778643 (0.111745)
Neigh time (%) = 5.1434 (0.73814)
Comm  time (%) = 48.9091 (7.01904)
Outpt time (%) = 2.10806 (0.302532)
Other time (%) = 34.3899 (4.93536)

Nlocal:    5292.5 ave 5490 max 5145 min
Histogram: 1 1 1 0 0 1 1 0 0 1
Nghost:    7780.5 ave 7982 max 7585 min
Histogram: 1 1 0 1 0 0 1 0 1 1
Neighs:    303864 ave 325906 max 291372 min
Histogram: 2 0 1 1 1 0 0 0 0 1
FullNghs: 607729 ave 651492 max 584016 min
Histogram: 2 0 1 1 1 0 0 0 0 1

Total # of neighbors = 3646374
Ave neighs/atom = 114.828
Ave special neighs/atom = 5.09986
Neighbor list builds = 100
Dangerous builds = 100
velocity all zero linear
WARNING: Use special bonds = 0,1,1 with bond style fene (bond_fene.cpp:189)
Memory usage per processor = 18.891 Mbytes
Step sdpd_kin pTemp 
   18000 1.0269279e+09 1.0026673e+09 
   18100 1.0179129e+09 9.9380369e+08 
   18200 1.0311122e+09 1.006869e+09 
   18300 1.0233703e+09 9.9904732e+08 
   18400 1.0256404e+09 1.0018674e+09 
   18500 1.0265995e+09 1.003111e+09 
   18600 1.0242499e+09 1.0002552e+09 
   18700 1.0316575e+09 1.0078206e+09 
   18800 1.0424274e+09 1.0180875e+09 
   18900 1.0294969e+09 1.0051939e+09 
   19000 1.0227615e+09 9.9895287e+08 
Loop time of 671.739 on 6 procs for 1000 steps with 31755 atoms

Pair  time (%) = 603.005 (89.7677)
Bond  time (%) = 0.782668 (0.116514)
Neigh time (%) = 5.15518 (0.767438)
Comm  time (%) = 26.4187 (3.93288)
Outpt time (%) = 2.12049 (0.315671)
Other time (%) = 34.2573 (5.09979)

Nlocal:    5292.5 ave 5475 max 5169 min
Histogram: 2 0 0 2 0 0 1 0 0 1
Nghost:    7878.5 ave 8000 max 7677 min
Histogram: 1 0 0 1 0 1 0 0 1 2
Neighs:    302358 ave 315696 max 291397 min
Histogram: 2 0 0 1 1 0 0 0 0 2
FullNghs: 604715 ave 631605 max 581023 min
Histogram: 2 0 0 1 1 0 0 0 0 2

Total # of neighbors = 3628290
Ave neighs/atom = 114.259
Ave special neighs/atom = 5.09986
Neighbor list builds = 100
Dangerous builds = 100
velocity all zero linear
WARNING: Use special bonds = 0,1,1 with bond style fene (bond_fene.cpp:189)
Memory usage per processor = 18.1281 Mbytes
Step sdpd_kin pTemp 
   19000 1.0227609e+09 9.9895287e+08 
   19100 1.0340859e+09 1.0101443e+09 
   19200 1.0322998e+09 1.0082499e+09 
   19300 1.0238967e+09 1.0003448e+09 
   19400 1.0343935e+09 1.0102227e+09 
   19500 1.0335985e+09 1.0093024e+09 
   19600 1.0287246e+09 1.0043744e+09 
   19700 1.024832e+09 1.0011527e+09 
   19800 1.0213081e+09 9.9750144e+08 
   19900 1.0353044e+09 1.0113452e+09 
   20000 1.0214188e+09 9.9707792e+08 
Loop time of 664.639 on 6 procs for 1000 steps with 31755 atoms

Pair  time (%) = 603.535 (90.8064)
Bond  time (%) = 0.807213 (0.121451)
Neigh time (%) = 5.18286 (0.779801)
Comm  time (%) = 18.4068 (2.76945)
Outpt time (%) = 2.11068 (0.317567)
Other time (%) = 34.5967 (5.20533)

Nlocal:    5292.5 ave 5345 max 5235 min
Histogram: 1 0 0 1 0 2 0 1 0 1
Nghost:    7846 ave 7927 max 7719 min
Histogram: 1 0 0 0 1 0 1 1 1 1
Neighs:    303319 ave 308721 max 294031 min
Histogram: 1 0 0 0 1 1 0 0 1 2
FullNghs: 606638 ave 617278 max 588919 min
Histogram: 1 0 0 0 1 1 0 0 2 1

Total # of neighbors = 3639830
Ave neighs/atom = 114.622
Ave special neighs/atom = 5.09986
Neighbor list builds = 100
Dangerous builds = 99
velocity all zero linear
WARNING: Use special bonds = 0,1,1 with bond style fene (bond_fene.cpp:189)
Memory usage per processor = 18.5096 Mbytes
Step sdpd_kin pTemp 
   20000 1.0214184e+09 9.9707792e+08 
   20100 1.0351749e+09 1.0105494e+09 
   20200 1.013646e+09 9.8977473e+08 
   20300 1.0233321e+09 9.9902824e+08 
   20400 1.0337889e+09 1.0089585e+09 
   20500 1.0292431e+09 1.0046923e+09 
   20600 1.0295791e+09 1.0045701e+09 
   20700 1.0308195e+09 1.0062597e+09 
   20800 1.0230634e+09 9.9824781e+08 
   20900 1.034099e+09 1.0090757e+09 
   21000 1.0380426e+09 1.012775e+09 
Loop time of 660.249 on 6 procs for 1000 steps with 31755 atoms

Pair  time (%) = 602.922 (91.3173)
Bond  time (%) = 0.792879 (0.120088)
Neigh time (%) = 5.16933 (0.782937)
Comm  time (%) = 16.0517 (2.43115)
Outpt time (%) = 2.10067 (0.318163)
Other time (%) = 33.2126 (5.03031)

Nlocal:    5292.5 ave 5416 max 5177 min
Histogram: 1 0 2 0 1 0 0 0 0 2
Nghost:    7770.5 ave 7965 max 7616 min
Histogram: 2 0 1 0 0 1 0 0 1 1
Neighs:    303350 ave 316692 max 293125 min
Histogram: 1 1 2 0 0 0 0 0 0 2
FullNghs: 606701 ave 632689 max 585504 min
Histogram: 1 1 1 1 0 0 0 0 0 2

Total # of neighbors = 3640206
Ave neighs/atom = 114.634
Ave special neighs/atom = 5.09986
Neighbor list builds = 100
Dangerous builds = 100
velocity all zero linear
WARNING: Use special bonds = 0,1,1 with bond style fene (bond_fene.cpp:189)
Memory usage per processor = 18.891 Mbytes
Step sdpd_kin pTemp 
   21000 1.0380425e+09 1.012775e+09 
   21100 1.0322343e+09 1.0066299e+09 
   21200 1.0341572e+09 1.0086274e+09 
   21300 1.0317726e+09 1.0059678e+09 
   21400 1.0271787e+09 1.0013702e+09 
   21500 1.0254666e+09 9.9960406e+08 
   21600 1.0254748e+09 1.000063e+09 
   21700 1.0268914e+09 1.0008108e+09 
   21800 1.0218012e+09 9.9618205e+08 
   21900 1.0247297e+09 9.9933879e+08 
   22000 1.0316439e+09 1.0058551e+09 
Loop time of 668.33 on 6 procs for 1000 steps with 31755 atoms

Pair  time (%) = 601.204 (89.9562)
Bond  time (%) = 0.794044 (0.11881)
Neigh time (%) = 5.16696 (0.773115)
Comm  time (%) = 25.7946 (3.85956)
Outpt time (%) = 2.11571 (0.316567)
Other time (%) = 33.2543 (4.97573)

Nlocal:    5292.5 ave 5371 max 5220 min
Histogram: 1 1 0 1 1 0 0 0 1 1
Nghost:    7715.83 ave 7985 max 7484 min
Histogram: 1 0 1 1 0 1 1 0 0 1
Neighs:    302716 ave 310576 max 296455 min
Histogram: 2 0 1 0 1 0 0 0 0 2
FullNghs: 605431 ave 621903 max 592009 min
Histogram: 1 1 1 1 0 0 0 0 0 2

Total # of neighbors = 3632588
Ave neighs/atom = 114.394
Ave special neighs/atom = 5.09986
Neighbor list builds = 100
Dangerous builds = 100
velocity all zero linear
WARNING: Use special bonds = 0,1,1 with bond style fene (bond_fene.cpp:189)
Memory usage per processor = 18.891 Mbytes
Step sdpd_kin pTemp 
   22000 1.0316439e+09 1.0058551e+09 
   22100 1.0224985e+09 9.969284e+08 
   22200 1.0309518e+09 1.0051979e+09 
   22300 1.030465e+09 1.0052315e+09 
   22400 1.0258075e+09 1.0001551e+09 
   22500 1.0345862e+09 1.0089581e+09 
   22600 1.0305807e+09 1.0051268e+09 
   22700 1.0260273e+09 1.000142e+09 
   22800 1.0251249e+09 9.9945323e+08 
   22900 1.0340057e+09 1.0076733e+09 
   23000 1.0312959e+09 1.0053065e+09 
Loop time of 666.448 on 6 procs for 1000 steps with 31755 atoms

Pair  time (%) = 601.646 (90.2765)
Bond  time (%) = 0.787276 (0.11813)
Neigh time (%) = 5.16386 (0.774834)
Comm  time (%) = 23.6016 (3.5414)
Outpt time (%) = 2.08813 (0.313322)
Other time (%) = 33.1614 (4.97584)

Nlocal:    5292.5 ave 5402 max 5197 min
Histogram: 1 2 0 0 0 1 0 0 0 2
Nghost:    7690.67 ave 8106 max 7393 min
Histogram: 1 0 2 1 0 0 0 1 0 1
Neighs:    302905 ave 314957 max 294208 min
Histogram: 2 1 0 1 0 0 0 0 0 2
FullNghs: 605810 ave 629881 max 589084 min
Histogram: 2 1 0 1 0 0 0 0 0 2

Total # of neighbors = 3634858
Ave neighs/atom = 114.466
Ave special neighs/atom = 5.09986
Neighbor list builds = 100
Dangerous builds = 100
velocity all zero linear
WARNING: Use special bonds = 0,1,1 with bond style fene (bond_fene.cpp:189)
Memory usage per processor = 18.891 Mbytes
Step sdpd_kin pTemp 
   23000 1.0312959e+09 1.0053065e+09 
   23100 1.0315153e+09 1.0056499e+09 
   23200 1.0285557e+09 1.0026834e+09 
   23300 1.038784e+09 1.0130527e+09 
   23400 1.0299223e+09 1.0036674e+09 
   23500 1.0290977e+09 1.0032557e+09 
   23600 1.0241209e+09 9.9852573e+08 
   23700 1.0285925e+09 1.0032496e+09 
   23800 1.0258358e+09 9.9974852e+08 
   23900 1.0296634e+09 1.0037227e+09 
   24000 1.0259188e+09 1.000851e+09 
Loop time of 674.383 on 6 procs for 1000 steps with 31755 atoms

Pair  time (%) = 602.199 (89.2963)
Bond  time (%) = 0.786073 (0.116562)
Neigh time (%) = 5.15928 (0.765037)
Comm  time (%) = 29.9686 (4.44386)
Outpt time (%) = 2.09956 (0.311331)
Other time (%) = 34.1706 (5.06694)

Nlocal:    5292.5 ave 5427 max 5138 min
Histogram: 1 0 0 1 0 2 0 0 1 1
Nghost:    7723.17 ave 7914 max 7596 min
Histogram: 2 1 0 0 1 0 0 1 0 1
Neighs:    302110 ave 316311 max 288252 min
Histogram: 1 1 0 1 0 1 0 0 0 2
FullNghs: 604220 ave 632480 max 577606 min
Histogram: 2 0 0 1 0 1 0 0 1 1

Total # of neighbors = 3625320
Ave neighs/atom = 114.165
Ave special neighs/atom = 5.09986
Neighbor list builds = 100
Dangerous builds = 100
velocity all zero linear
WARNING: Use special bonds = 0,1,1 with bond style fene (bond_fene.cpp:189)
Memory usage per processor = 18.891 Mbytes
Step sdpd_kin pTemp 
   24000 1.0259188e+09 1.000851e+09 
   24100 1.032139e+09 1.0071027e+09 
   24200 1.0224457e+09 9.9701312e+08 
   24300 1.0314097e+09 1.0059881e+09 
   24400 1.0288498e+09 1.0030721e+09 
   24500 1.0237755e+09 9.9811095e+08 
   24600 1.0358067e+09 1.0106121e+09 
   24700 1.0229872e+09 9.9790939e+08 
   24800 1.0254935e+09 1.0000693e+09 
   24900 1.0240683e+09 9.987524e+08 
   25000 1.0209419e+09 9.9589976e+08 
Loop time of 668.42 on 6 procs for 1000 steps with 31755 atoms

Pair  time (%) = 599.869 (89.7442)
Bond  time (%) = 0.775677 (0.116046)
Neigh time (%) = 5.13178 (0.767748)
Comm  time (%) = 27.3042 (4.08488)
Outpt time (%) = 2.10759 (0.315308)
Other time (%) = 33.2326 (4.97181)

Nlocal:    5292.5 ave 5400 max 5187 min
Histogram: 1 1 0 0 0 2 1 0 0 1
Nghost:    7664.33 ave 7784 max 7588 min
Histogram: 2 0 2 0 0 0 0 0 1 1
Neighs:    303368 ave 316253 max 292940 min
Histogram: 1 0 1 0 2 1 0 0 0 1
FullNghs: 606737 ave 632686 max 586736 min
Histogram: 1 0 1 1 1 1 0 0 0 1

Total # of neighbors = 3640420
Ave neighs/atom = 114.641
Ave special neighs/atom = 5.09986
Neighbor list builds = 100
Dangerous builds = 100
velocity all zero linear
WARNING: Use special bonds = 0,1,1 with bond style fene (bond_fene.cpp:189)
Memory usage per processor = 18.891 Mbytes
Step sdpd_kin pTemp 
   25000 1.0209419e+09 9.9589976e+08 
   25100 1.0292091e+09 1.0039912e+09 
   25200 1.028611e+09 1.0034518e+09 
   25300 1.0334157e+09 1.0083432e+09 
   25400 1.0322097e+09 1.0070258e+09 
   25500 1.0268776e+09 1.0020531e+09 
   25600 1.0246303e+09 1.0001839e+09 
   25700 1.0218561e+09 9.9745378e+08 
   25800 1.0271496e+09 1.0030516e+09 
   25900 1.0227082e+09 9.9841973e+08 
   26000 1.0286943e+09 1.0044774e+09 
Loop time of 660.123 on 6 procs for 1000 steps with 31755 atoms

Pair  time (%) = 600.316 (90.9401)
Bond  time (%) = 0.791803 (0.119948)
Neigh time (%) = 5.1753 (0.783991)
Comm  time (%) = 18.1583 (2.75075)
Outpt time (%) = 2.11146 (0.319859)
Other time (%) = 33.5699 (5.0854)

Nlocal:    5292.5 ave 5361 max 5219 min
Histogram: 1 0 0 1 1 1 1 0 0 1
Nghost:    7818.67 ave 7879 max 7699 min
Histogram: 1 0 0 0 0 1 0 2 0 2
Neighs:    302314 ave 310883 max 294964 min
Histogram: 1 0 0 2 1 0 1 0 0 1
FullNghs: 604629 ave 620822 max 590527 min
Histogram: 1 0 1 1 1 0 1 0 0 1

Total # of neighbors = 3627772
Ave neighs/atom = 114.243
Ave special neighs/atom = 5.09986
Neighbor list builds = 100
Dangerous builds = 100
velocity all zero linear
WARNING: Use special bonds = 0,1,1 with bond style fene (bond_fene.cpp:189)
Memory usage per processor = 18.891 Mbytes
Step sdpd_kin pTemp 
   26000 1.0286939e+09 1.0044774e+09 
   26100 1.0224299e+09 9.986271e+08 
   26200 1.0328721e+09 1.0085715e+09 
   26300 1.0376548e+09 1.0138367e+09 
   26400 1.0261738e+09 1.002527e+09 
   26500 1.0198576e+09 9.9659391e+08 
   26600 1.0290527e+09 1.0061919e+09 
   26700 1.0192075e+09 9.9635656e+08 
   26800 1.0238196e+09 1.0008353e+09 
   26900 1.0306394e+09 1.0079474e+09 
   27000 1.0249468e+09 1.0018874e+09 
Loop time of 672.404 on 6 procs for 1000 steps with 31755 atoms

Pair  time (%) = 601.922 (89.518)
Bond  time (%) = 0.78531 (0.116791)
Neigh time (%) = 5.17522 (0.76966)
Comm  time (%) = 27.0545 (4.02355)
Outpt time (%) = 2.11794 (0.31498)
Other time (%) = 35.3484 (5.25703)

Nlocal:    5292.5 ave 5415 max 5117 min
Histogram: 1 0 1 0 0 0 1 1 1 1
Nghost:    7838.17 ave 7998 max 7708 min
Histogram: 2 0 0 1 0 1 0 1 0 1
Neighs:    303056 ave 319395 max 286465 min
Histogram: 2 0 0 0 0 1 1 1 0 1
FullNghs: 606113 ave 636450 max 574314 min
Histogram: 2 0 0 0 0 0 2 1 0 1

Total # of neighbors = 3636676
Ave neighs/atom = 114.523
Ave special neighs/atom = 5.09986
Neighbor list builds = 100
Dangerous builds = 100
velocity all zero linear
WARNING: Use special bonds = 0,1,1 with bond style fene (bond_fene.cpp:189)
Memory usage per processor = 18.891 Mbytes
Step sdpd_kin pTemp 
   27000 1.0249467e+09 1.0018874e+09 
   27100 1.0292673e+09 1.0060061e+09 
   27200 1.0284364e+09 1.0056369e+09 
   27300 1.0215543e+09 9.9904699e+08 
   27400 1.0276767e+09 1.0047228e+09 
   27500 1.0310362e+09 1.0082356e+09 
   27600 1.0212447e+09 9.978629e+08 
   27700 1.0321989e+09 1.0091479e+09 
   27800 1.0260298e+09 1.0031667e+09 
   27900 1.0252554e+09 1.0021174e+09 
   28000 1.0297297e+09 1.0066628e+09 
Loop time of 677.956 on 6 procs for 1000 steps with 31755 atoms

Pair  time (%) = 599.596 (88.4417)
Bond  time (%) = 0.781211 (0.11523)
Neigh time (%) = 5.15179 (0.7599)
Comm  time (%) = 35.2542 (5.20008)
Outpt time (%) = 2.11465 (0.311915)
Other time (%) = 35.0586 (5.17122)

Nlocal:    5292.5 ave 5442 max 5162 min
Histogram: 1 1 1 0 1 0 0 0 0 2
Nghost:    7717.67 ave 7949 max 7490 min
Histogram: 1 0 1 1 1 0 0 0 1 1
Neighs:    301159 ave 318304 max 284984 min
Histogram: 1 0 2 0 0 1 0 0 1 1
FullNghs: 602317 ave 637279 max 570547 min
Histogram: 1 0 2 0 0 1 0 0 1 1

Total # of neighbors = 3613904
Ave neighs/atom = 113.806
Ave special neighs/atom = 5.09986
Neighbor list builds = 100
Dangerous builds = 100
velocity all zero linear
WARNING: Use special bonds = 0,1,1 with bond style fene (bond_fene.cpp:189)
Memory usage per processor = 18.891 Mbytes
Step sdpd_kin pTemp 
   28000 1.0297297e+09 1.0066628e+09 
   28100 1.0211726e+09 9.9784889e+08 
   28200 1.0211603e+09 9.9815819e+08 
   28300 1.0244573e+09 1.000778e+09 
   28400 1.0342989e+09 1.0106566e+09 
   28500 1.0227179e+09 9.9935324e+08 
   28600 1.024417e+09 1.0013823e+09 
   28700 1.019098e+09 9.961923e+08 
   28800 1.0160198e+09 9.9300884e+08 
   28900 1.0200791e+09 9.9696189e+08 
   29000 1.0255673e+09 1.0021461e+09 
Loop time of 679.048 on 6 procs for 1000 steps with 31755 atoms

Pair  time (%) = 600.184 (88.386)
Bond  time (%) = 0.784306 (0.115501)
Neigh time (%) = 5.15949 (0.759811)
Comm  time (%) = 36.322 (5.34896)
Outpt time (%) = 2.10599 (0.310139)
Other time (%) = 34.4929 (5.0796)

Nlocal:    5292.5 ave 5351 max 5214 min
Histogram: 1 0 0 1 0 0 2 1 0 1
Nghost:    7790.5 ave 8012 max 7491 min
Histogram: 1 0 0 1 0 2 0 0 0 2
Neighs:    302121 ave 306366 max 298090 min
Histogram: 1 0 0 2 1 0 0 1 0 1
FullNghs: 604242 ave 613151 max 594025 min
Histogram: 1 0 0 0 3 0 0 0 1 1

Total # of neighbors = 3625454
Ave neighs/atom = 114.17
Ave special neighs/atom = 5.09986
Neighbor list builds = 100
Dangerous builds = 100
velocity all zero linear
WARNING: Use special bonds = 0,1,1 with bond style fene (bond_fene.cpp:189)
Memory usage per processor = 18.891 Mbytes
Step sdpd_kin pTemp 
   29000 1.0255673e+09 1.0021461e+09 
   29100 1.0293081e+09 1.0061707e+09 
   29200 1.0275996e+09 1.0049061e+09 
   29300 1.0227888e+09 9.9966363e+08 
   29400 1.0212533e+09 9.9818546e+08 
   29500 1.0289629e+09 1.0061903e+09 
   29600 1.0213123e+09 9.9883547e+08 
   29700 1.0222993e+09 9.9987264e+08 
   29800 1.0192196e+09 9.9659876e+08 
   29900 1.0235582e+09 1.0009171e+09 
   30000 1.0296041e+09 1.0075066e+09 
Loop time of 662.326 on 6 procs for 1000 steps with 31755 atoms

Pair  time (%) = 601.258 (90.7798)
Bond  time (%) = 0.787646 (0.118921)
Neigh time (%) = 5.15455 (0.77825)
Comm  time (%) = 19.3375 (2.91964)
Outpt time (%) = 2.12551 (0.320917)
Other time (%) = 33.6623 (5.08244)

Nlocal:    5292.5 ave 5417 max 5174 min
Histogram: 1 1 1 0 0 1 0 0 0 2
Nghost:    7732.5 ave 7954 max 7582 min
Histogram: 2 1 0 0 0 1 1 0 0 1
Neighs:    303069 ave 314795 max 289390 min
Histogram: 1 1 0 0 1 0 1 0 0 2
FullNghs: 606137 ave 631323 max 580835 min
Histogram: 1 1 0 0 1 0 1 0 1 1

Total # of neighbors = 3636824
Ave neighs/atom = 114.528
Ave special neighs/atom = 5.09986
Neighbor list builds = 100
Dangerous builds = 99
velocity all zero linear
WARNING: Use special bonds = 0,1,1 with bond style fene (bond_fene.cpp:189)
Memory usage per processor = 18.1281 Mbytes
Step sdpd_kin pTemp 
   30000 1.029604e+09 1.0075066e+09 
   30100 1.0304888e+09 1.0088196e+09 
   30200 1.0238768e+09 1.0022311e+09 
   30300 1.0294907e+09 1.0075104e+09 
   30400 1.0261339e+09 1.003344e+09 
   30500 1.0247629e+09 1.0024029e+09 
   30600 1.0259252e+09 1.0040102e+09 
   30700 1.018504e+09 9.9676112e+08 
   30800 1.0285261e+09 1.0072066e+09 
   30900 1.0167406e+09 9.9524051e+08 
   31000 1.0239353e+09 1.0024383e+09 
Loop time of 682.285 on 6 procs for 1000 steps with 31755 atoms

Pair  time (%) = 604.061 (88.5349)
Bond  time (%) = 0.785089 (0.115068)
Neigh time (%) = 5.16254 (0.756654)
Comm  time (%) = 35.0214 (5.13295)
Outpt time (%) = 2.11291 (0.309681)
Other time (%) = 35.1426 (5.15071)

Nlocal:    5292.5 ave 5539 max 5107 min
Histogram: 1 0 1 1 1 1 0 0 0 1
Nghost:    7805.67 ave 8063 max 7577 min
Histogram: 2 1 0 0 0 0 0 0 2 1
Neighs:    303452 ave 328266 max 285473 min
Histogram: 1 0 1 1 1 1 0 0 0 1
FullNghs: 606903 ave 655348 max 569123 min
Histogram: 1 0 1 1 1 1 0 0 0 1

Total # of neighbors = 3641418
Ave neighs/atom = 114.672
Ave special neighs/atom = 5.09986
Neighbor list builds = 100
Dangerous builds = 100
velocity all zero linear
WARNING: Use special bonds = 0,1,1 with bond style fene (bond_fene.cpp:189)
Memory usage per processor = 18.891 Mbytes
Step sdpd_kin pTemp 
   31000 1.0239349e+09 1.0024383e+09 
   31100 1.0228387e+09 1.0014081e+09 
   31200 1.0291089e+09 1.0073986e+09 
   31300 1.0287965e+09 1.0067216e+09 
   31400 1.0257519e+09 1.0034133e+09 
   31500 1.0340641e+09 1.0122308e+09 
   31600 1.0311218e+09 1.0091843e+09 
   31700 1.0259757e+09 1.0044867e+09 
   31800 1.0203239e+09 9.9849007e+08 
   31900 1.022833e+09 1.0007873e+09 
   32000 1.0287427e+09 1.0065356e+09 
Loop time of 676.653 on 6 procs for 1000 steps with 31755 atoms

Pair  time (%) = 600.046 (88.6786)
Bond  time (%) = 0.775412 (0.114595)
Neigh time (%) = 5.12578 (0.757521)
Comm  time (%) = 34.5591 (5.10736)
Outpt time (%) = 2.12093 (0.313445)
Other time (%) = 34.025 (5.02843)

Nlocal:    5292.5 ave 5366 max 5215 min
Histogram: 1 1 0 1 0 0 1 0 0 2
Nghost:    7682.33 ave 7807 max 7469 min
Histogram: 1 0 0 0 0 1 0 3 0 1
Neighs:    300626 ave 309722 max 292308 min
Histogram: 2 0 0 0 1 0 1 1 0 1
FullNghs: 601251 ave 619904 max 584091 min
Histogram: 2 0 0 0 1 1 0 1 0 1

Total # of neighbors = 3607506
Ave neighs/atom = 113.604
Ave special neighs/atom = 5.09986
Neighbor list builds = 100
Dangerous builds = 100
velocity all zero linear
WARNING: Use special bonds = 0,1,1 with bond style fene (bond_fene.cpp:189)
Memory usage per processor = 18.1281 Mbytes
Step sdpd_kin pTemp 
   32000 1.0287424e+09 1.0065356e+09 
   32100 1.0235633e+09 1.0017412e+09 
   32200 1.0244714e+09 1.0024618e+09 
   32300 1.0234843e+09 1.0017913e+09 
   32400 1.0302532e+09 1.008531e+09 
   32500 1.0225744e+09 1.000631e+09 
   32600 1.0244674e+09 1.0028793e+09 
   32700 1.0228881e+09 1.0010703e+09 
   32800 1.0301873e+09 1.0079373e+09 
   32900 1.0178961e+09 9.9586403e+08 
   33000 1.0131923e+09 9.9165419e+08 
Loop time of 661.957 on 6 procs for 1000 steps with 31755 atoms

Pair  time (%) = 600.49 (90.7144)
Bond  time (%) = 0.790941 (0.119485)
Neigh time (%) = 5.16804 (0.780722)
Comm  time (%) = 18.8833 (2.85266)
Outpt time (%) = 2.10109 (0.317406)
Other time (%) = 34.5235 (5.21537)

Nlocal:    5292.5 ave 5362 max 5197 min
Histogram: 1 0 0 0 1 0 2 1 0 1
Nghost:    7697 ave 7803 max 7484 min
Histogram: 1 0 0 0 0 0 1 2 1 1
Neighs:    302660 ave 310154 max 294165 min
Histogram: 1 1 0 0 1 0 0 1 1 1
FullNghs: 605319 ave 619606 max 585151 min
Histogram: 1 0 1 0 0 1 0 0 2 1

Total # of neighbors = 3631914
Ave neighs/atom = 114.373
Ave special neighs/atom = 5.09986
Neighbor list builds = 100
Dangerous builds = 100
velocity all zero linear
WARNING: Use special bonds = 0,1,1 with bond style fene (bond_fene.cpp:189)
Memory usage per processor = 18.891 Mbytes
Step sdpd_kin pTemp 
   33000 1.0131922e+09 9.9165419e+08 
   33100 1.0241051e+09 1.0017824e+09 
   33200 1.0245057e+09 1.0021903e+09 
   33300 1.0283112e+09 1.0059274e+09 
   33400 1.0287905e+09 1.0061515e+09 
   33500 1.0261196e+09 1.0033926e+09 
   33600 1.0247849e+09 1.0025279e+09 
   33700 1.0287054e+09 1.0070293e+09 
   33800 1.033226e+09 1.010861e+09 
   33900 1.0184423e+09 9.9655863e+08 
   34000 1.0248153e+09 1.0023755e+09 
Loop time of 659.47 on 6 procs for 1000 steps with 31755 atoms

Pair  time (%) = 601.192 (91.1629)
Bond  time (%) = 0.791144 (0.119967)
Neigh time (%) = 5.14796 (0.78062)
Comm  time (%) = 17.9674 (2.72452)
Outpt time (%) = 2.10295 (0.318885)
Other time (%) = 32.2689 (4.89315)

Nlocal:    5292.5 ave 5361 max 5188 min
Histogram: 1 0 0 0 1 1 0 2 0 1
Nghost:    7720.5 ave 7834 max 7608 min
Histogram: 2 0 0 0 1 1 0 0 1 1
Neighs:    303549 ave 309621 max 292733 min
Histogram: 1 0 0 0 1 0 0 2 0 2
FullNghs: 607099 ave 619212 max 584025 min
Histogram: 1 0 0 0 1 0 0 2 0 2

Total # of neighbors = 3642592
Ave neighs/atom = 114.709
Ave special neighs/atom = 5.09986
Neighbor list builds = 100
Dangerous builds = 100
velocity all zero linear
WARNING: Use special bonds = 0,1,1 with bond style fene (bond_fene.cpp:189)
Memory usage per processor = 18.891 Mbytes
Step sdpd_kin pTemp 
   34000 1.0248153e+09 1.0023755e+09 
   34100 1.0243498e+09 1.0016794e+09 
   34200 1.0307418e+09 1.0073917e+09 
   34300 1.0264532e+09 1.0033245e+09 
   34400 1.0318035e+09 1.008556e+09 
   34500 1.0273191e+09 1.0033914e+09 
   34600 1.0269959e+09 1.0031812e+09 
   34700 1.0285637e+09 1.0045647e+09 
   34800 1.0281278e+09 1.0046453e+09 
   34900 1.0290717e+09 1.0053364e+09 
   35000 1.0253752e+09 1.001694e+09 
Loop time of 665.317 on 6 procs for 1000 steps with 31755 atoms

Pair  time (%) = 603.218 (90.6663)
Bond  time (%) = 0.790479 (0.118812)
Neigh time (%) = 5.17245 (0.777442)
Comm  time (%) = 19.3225 (2.90426)
Outpt time (%) = 2.10364 (0.316186)
Other time (%) = 34.7094 (5.21697)

Nlocal:    5292.5 ave 5446 max 5190 min
Histogram: 1 1 0 2 0 0 1 0 0 1
Nghost:    7829.5 ave 7971 max 7741 min
Histogram: 2 1 1 0 0 0 0 0 1 1
Neighs:    303497 ave 315457 max 290381 min
Histogram: 1 0 1 0 0 1 1 1 0 1
FullNghs: 606995 ave 631855 max 580853 min
Histogram: 1 0 1 0 0 2 0 1 0 1

Total # of neighbors = 3641968
Ave neighs/atom = 114.69
Ave special neighs/atom = 5.09986
Neighbor list builds = 100
Dangerous builds = 100
velocity all zero linear
WARNING: Use special bonds = 0,1,1 with bond style fene (bond_fene.cpp:189)
Memory usage per processor = 18.891 Mbytes
Step sdpd_kin pTemp 
   35000 1.0253748e+09 1.001694e+09 
   35100 1.031485e+09 1.0070537e+09 
   35200 1.030466e+09 1.0061867e+09 
   35300 1.022523e+09 9.988811e+08 
   35400 1.0302457e+09 1.0062924e+09 
   35500 1.030687e+09 1.0065122e+09 
   35600 1.0219408e+09 9.9818867e+08 
   35700 1.0226548e+09 9.9860828e+08 
   35800 1.0311325e+09 1.0072518e+09 
   35900 1.0292564e+09 1.005515e+09 
   36000 1.0201368e+09 9.9584402e+08 
Loop time of 678.174 on 6 procs for 1000 steps with 31755 atoms

Pair  time (%) = 602.607 (88.8572)
Bond  time (%) = 0.777244 (0.114608)
Neigh time (%) = 5.14336 (0.758413)
Comm  time (%) = 33.5695 (4.94999)
Outpt time (%) = 2.09836 (0.309413)
Other time (%) = 33.979 (5.01036)

Nlocal:    5292.5 ave 5464 max 5117 min
Histogram: 1 1 0 0 1 0 0 2 0 1
Nghost:    7849.67 ave 8042 max 7699 min
Histogram: 1 1 0 1 1 0 0 1 0 1
Neighs:    303363 ave 321557 max 281997 min
Histogram: 1 0 1 0 0 1 1 0 1 1
FullNghs: 606726 ave 642315 max 564704 min
Histogram: 1 0 1 0 0 1 1 0 1 1

Total # of neighbors = 3640358
Ave neighs/atom = 114.639
Ave special neighs/atom = 5.09986
Neighbor list builds = 100
Dangerous builds = 100
velocity all zero linear
WARNING: Use special bonds = 0,1,1 with bond style fene (bond_fene.cpp:189)
Memory usage per processor = 18.891 Mbytes
Step sdpd_kin pTemp 
   36000 1.020136e+09 9.9584402e+08 
   36100 1.0359912e+09 1.0117685e+09 
   36200 1.0337096e+09 1.0102791e+09 
   36300 1.0327365e+09 1.0090294e+09 
   36400 1.0276861e+09 1.0040633e+09 
   36500 1.0313047e+09 1.0074815e+09 
   36600 1.017172e+09 9.9355597e+08 
   36700 1.0332484e+09 1.0094704e+09 
   36800 1.0285823e+09 1.0047982e+09 
   36900 1.031285e+09 1.0077653e+09 
   37000 1.0256952e+09 1.0022442e+09 
Loop time of 686.525 on 6 procs for 1000 steps with 31755 atoms

Pair  time (%) = 603.469 (87.902)
Bond  time (%) = 0.775996 (0.113032)
Neigh time (%) = 5.12348 (0.746292)
Comm  time (%) = 41.0537 (5.97992)
Outpt time (%) = 2.10019 (0.305917)
Other time (%) = 34.0026 (4.95286)

Nlocal:    5292.5 ave 5468 max 5114 min
Histogram: 1 0 1 0 0 2 1 0 0 1
Nghost:    7725.33 ave 7900 max 7449 min
Histogram: 1 0 0 2 0 0 0 0 0 3
Neighs:    303546 ave 321335 max 286439 min
Histogram: 1 0 1 0 1 1 1 0 0 1
FullNghs: 607091 ave 643338 max 571975 min
Histogram: 1 0 1 0 1 1 1 0 0 1

Total # of neighbors = 3642548
Ave neighs/atom = 114.708
Ave special neighs/atom = 5.09986
Neighbor list builds = 100
Dangerous builds = 100
velocity all zero linear
WARNING: Use special bonds = 0,1,1 with bond style fene (bond_fene.cpp:189)
Memory usage per processor = 18.891 Mbytes
Step sdpd_kin pTemp 
   37000 1.0256942e+09 1.0022442e+09 
   37100 1.016867e+09 9.931025e+08 
   37200 1.0266438e+09 1.0024538e+09 
   37300 1.0290579e+09 1.0051972e+09 
   37400 1.0270285e+09 1.0032192e+09 
   37500 1.0280687e+09 1.0044482e+09 
   37600 1.0250508e+09 1.0014723e+09 
   37700 1.034471e+09 1.0103144e+09 
   37800 1.0214194e+09 9.9731836e+08 
   37900 1.0297282e+09 1.0060324e+09 
   38000 1.0312744e+09 1.0072355e+09 
Loop time of 682.092 on 6 procs for 1000 steps with 31755 atoms

Pair  time (%) = 603.433 (88.468)
Bond  time (%) = 0.777227 (0.113948)
Neigh time (%) = 5.13208 (0.752404)
Comm  time (%) = 36.9617 (5.41888)
Outpt time (%) = 2.11077 (0.309456)
Other time (%) = 33.6767 (4.93726)

Nlocal:    5292.5 ave 5437 max 5079 min
Histogram: 1 1 0 0 0 0 0 1 2 1
Nghost:    7743.33 ave 7875 max 7514 min
Histogram: 1 0 0 1 0 1 0 0 0 3
Neighs:    303037 ave 317683 max 277237 min
Histogram: 1 0 0 1 0 0 0 1 2 1
FullNghs: 606074 ave 633189 max 556682 min
Histogram: 1 0 0 1 0 0 0 0 3 1

Total # of neighbors = 3636444
Ave neighs/atom = 114.516
Ave special neighs/atom = 5.09986
Neighbor list builds = 100
Dangerous builds = 100
velocity all zero linear
WARNING: Use special bonds = 0,1,1 with bond style fene (bond_fene.cpp:189)
Memory usage per processor = 18.891 Mbytes
Step sdpd_kin pTemp 
   38000 1.0312734e+09 1.0072355e+09 
   38100 1.023978e+09 1.0002729e+09 
   38200 1.029057e+09 1.0050667e+09 
   38300 1.0313853e+09 1.0073052e+09 
   38400 1.0315165e+09 1.0072673e+09 
   38500 1.0349272e+09 1.0105803e+09 
   38600 1.0285492e+09 1.0039152e+09 
   38700 1.0293814e+09 1.0054739e+09 
   38800 1.0307042e+09 1.0067884e+09 
   38900 1.0213065e+09 9.9709395e+08 
   39000 1.0262123e+09 1.0023876e+09 
Loop time of 675.007 on 6 procs for 1000 steps with 31755 atoms

Pair  time (%) = 602.253 (89.2216)
Bond  time (%) = 0.776163 (0.114986)
Neigh time (%) = 5.13361 (0.760526)
Comm  time (%) = 30.2771 (4.48545)
Outpt time (%) = 2.11189 (0.312869)
Other time (%) = 34.456 (5.10454)

Nlocal:    5292.5 ave 5419 max 5162 min
Histogram: 1 1 0 0 1 0 2 0 0 1
Nghost:    7781.83 ave 7929 max 7616 min
Histogram: 1 1 0 0 0 2 0 0 0 2
Neighs:    302144 ave 319794 max 290170 min
Histogram: 2 0 0 1 0 2 0 0 0 1
FullNghs: 604288 ave 637902 max 580512 min
Histogram: 2 0 0 0 2 1 0 0 0 1

Total # of neighbors = 3625728
Ave neighs/atom = 114.178
Ave special neighs/atom = 5.09986
Neighbor list builds = 100
Dangerous builds = 100
velocity all zero linear
WARNING: Use special bonds = 0,1,1 with bond style fene (bond_fene.cpp:189)
Memory usage per processor = 18.891 Mbytes
Step sdpd_kin pTemp 
   39000 1.0262116e+09 1.0023876e+09 
   39100 1.0271696e+09 1.0037289e+09 
   39200 1.0299534e+09  1.00648e+09 
   39300 1.0277049e+09 1.0054863e+09 
   39400 1.0275592e+09 1.0052115e+09 
   39500 1.0267705e+09 1.0039724e+09 
   39600 1.0280906e+09 1.0052743e+09 
   39700 1.0252932e+09 1.0023381e+09 
   39800 1.0251942e+09 1.0022113e+09 
   39900 1.0222234e+09 9.9928947e+08 
   40000 1.0225713e+09 9.9967144e+08 
Loop time of 674.463 on 6 procs for 1000 steps with 31755 atoms

Pair  time (%) = 600.766 (89.0732)
Bond  time (%) = 0.791049 (0.117286)
Neigh time (%) = 5.14214 (0.762405)
Comm  time (%) = 31.8194 (4.71773)
Outpt time (%) = 2.11997 (0.31432)
Other time (%) = 33.8246 (5.01505)

Nlocal:    5292.5 ave 5372 max 5205 min
Histogram: 1 0 1 0 1 1 0 0 0 2
Nghost:    7774.33 ave 8045 max 7596 min
Histogram: 1 1 0 2 0 0 1 0 0 1
Neighs:    302599 ave 312735 max 296251 min
Histogram: 2 0 1 0 1 0 1 0 0 1
FullNghs: 605198 ave 624658 max 593457 min
Histogram: 2 1 0 0 1 0 1 0 0 1

Total # of neighbors = 3631190
Ave neighs/atom = 114.35
Ave special neighs/atom = 5.09986
Neighbor list builds = 100
Dangerous builds = 99
velocity all zero linear
WARNING: Use special bonds = 0,1,1 with bond style fene (bond_fene.cpp:189)
Memory usage per processor = 18.891 Mbytes
Step sdpd_kin pTemp 
   40000 1.0225709e+09 9.9967144e+08 
   40100 1.0310997e+09 1.0078361e+09 
   40200 1.0249467e+09 1.0022593e+09 
   40300 1.0266074e+09 1.0035248e+09 
   40400 1.0253288e+09 1.0015934e+09 
   40500 1.0249456e+09 1.0015144e+09 
   40600 1.0287067e+09 1.0055079e+09 
   40700 1.0183614e+09 9.9598267e+08 
   40800 1.0267817e+09 1.0044929e+09 
   40900 1.0283298e+09 1.0062954e+09 
   41000 1.0292317e+09 1.0074236e+09 
Loop time of 666.43 on 6 procs for 1000 steps with 31755 atoms

Pair  time (%) = 603.592 (90.571)
Bond  time (%) = 0.787851 (0.11822)
Neigh time (%) = 5.15217 (0.7731)
Comm  time (%) = 21.543 (3.2326)
Outpt time (%) = 2.1038 (0.315683)
Other time (%) = 33.2507 (4.98938)

Nlocal:    5292.5 ave 5390 max 5159 min
Histogram: 1 0 0 1 0 1 0 2 0 1
Nghost:    7799.33 ave 7957 max 7448 min
Histogram: 1 0 0 0 0 1 0 1 0 3
Neighs:    303570 ave 316062 max 290903 min
Histogram: 1 0 1 0 1 0 1 1 0 1
FullNghs: 607140 ave 630628 max 581613 min
Histogram: 1 0 1 0 1 0 1 1 0 1

Total # of neighbors = 3642838
Ave neighs/atom = 114.717
Ave special neighs/atom = 5.09986
Neighbor list builds = 100
Dangerous builds = 100
velocity all zero linear
WARNING: Use special bonds = 0,1,1 with bond style fene (bond_fene.cpp:189)
Memory usage per processor = 18.891 Mbytes
Step sdpd_kin pTemp 
   41000 1.0292315e+09 1.0074236e+09 
   41100 1.0183825e+09 9.9634422e+08 
   41200 1.0166186e+09 9.9525421e+08 
   41300 1.0203048e+09 9.9868131e+08 
   41400 1.0232051e+09 1.0015044e+09 
   41500 1.0223919e+09 1.000793e+09 
   41600 1.0314989e+09 1.0096026e+09 
   41700 1.0350707e+09 1.0131901e+09 
   41800 1.0248372e+09 1.0028119e+09 
   41900 1.0224439e+09 1.0003056e+09 
   42000 1.0249843e+09 1.0026528e+09 
Loop time of 679.4 on 6 procs for 1000 steps with 31755 atoms

Pair  time (%) = 602.716 (88.713)
Bond  time (%) = 0.781339 (0.115004)
Neigh time (%) = 5.12375 (0.754157)
Comm  time (%) = 35.4107 (5.21205)
Outpt time (%) = 2.10696 (0.310121)
Other time (%) = 33.2612 (4.89567)

Nlocal:    5292.5 ave 5445 max 5179 min
Histogram: 2 0 1 1 0 0 0 0 1 1
Nghost:    7896.5 ave 8052 max 7720 min
Histogram: 1 1 0 0 0 1 1 0 1 1
Neighs:    303177 ave 320749 max 287751 min
Histogram: 1 2 0 0 0 1 0 0 1 1
FullNghs: 606354 ave 641831 max 576060 min
Histogram: 1 2 0 0 0 1 0 0 1 1

Total # of neighbors = 3638122
Ave neighs/atom = 114.568
Ave special neighs/atom = 5.09986
Neighbor list builds = 100
Dangerous builds = 100
velocity all zero linear
WARNING: Use special bonds = 0,1,1 with bond style fene (bond_fene.cpp:189)
Memory usage per processor = 18.891 Mbytes
Step sdpd_kin pTemp 
   42000 1.0249843e+09 1.0026528e+09 
   42100 1.0263023e+09 1.0043324e+09 
   42200 1.0235538e+09 1.0010795e+09 
   42300 1.0230013e+09 1.0003889e+09 
   42400 1.0251728e+09 1.0028383e+09 
   42500 1.0258062e+09 1.0041134e+09 
   42600 1.0272464e+09 1.005291e+09 
   42700 1.0342917e+09 1.0118513e+09 
   42800 1.0304815e+09 1.0086313e+09 
   42900 1.0402018e+09 1.0176178e+09 
   43000 1.0250925e+09 1.0026262e+09 
Loop time of 683.656 on 6 procs for 1000 steps with 31755 atoms

Pair  time (%) = 601.728 (88.0163)
Bond  time (%) = 0.785801 (0.114941)
Neigh time (%) = 5.1351 (0.751124)
Comm  time (%) = 39.5972 (5.79198)
Outpt time (%) = 2.12139 (0.310301)
Other time (%) = 34.2879 (5.01538)

Nlocal:    5292.5 ave 5407 max 5162 min
Histogram: 1 1 0 1 0 0 0 0 2 1
Nghost:    7821.17 ave 8005 max 7719 min
Histogram: 2 0 1 1 1 0 0 0 0 1
Neighs:    301388 ave 314879 max 288328 min
Histogram: 2 1 0 0 0 0 0 1 0 2
FullNghs: 602776 ave 628820 max 575970 min
Histogram: 1 2 0 0 0 0 0 1 0 2

Total # of neighbors = 3616654
Ave neighs/atom = 113.892
Ave special neighs/atom = 5.09986
Neighbor list builds = 100
Dangerous builds = 100
velocity all zero linear
WARNING: Use special bonds = 0,1,1 with bond style fene (bond_fene.cpp:189)
Memory usage per processor = 18.891 Mbytes
Step sdpd_kin pTemp 
   43000 1.0250925e+09 1.0026262e+09 
   43100 1.0157088e+09 9.9245561e+08 
   43200 1.0302545e+09 1.0070778e+09 
   43300 1.0230202e+09 9.9951963e+08 
   43400 1.0365179e+09 1.0128709e+09 
   43500 1.0262811e+09 1.0025825e+09 
   43600  1.03372e+09 1.0096298e+09 
   43700 1.030592e+09 1.0069724e+09 
   43800 1.0288756e+09 1.0045186e+09 
   43900 1.0246147e+09 1.0004835e+09 
   44000 1.020963e+09 9.9698941e+08 
Loop time of 665.793 on 6 procs for 1000 steps with 31755 atoms

Pair  time (%) = 598.9 (89.9529)
Bond  time (%) = 0.791473 (0.118877)
Neigh time (%) = 5.15659 (0.774503)
Comm  time (%) = 24.9385 (3.74568)
Outpt time (%) = 2.10692 (0.316453)
Other time (%) = 33.8992 (5.09156)

Nlocal:    5292.5 ave 5420 max 5202 min
Histogram: 1 1 0 2 0 0 1 0 0 1
Nghost:    7797.17 ave 8016 max 7655 min
Histogram: 1 1 1 0 2 0 0 0 0 1
Neighs:    302198 ave 313142 max 294736 min
Histogram: 3 0 0 0 0 1 0 0 1 1
FullNghs: 604396 ave 625973 max 588628 min
Histogram: 2 1 0 0 0 1 0 0 1 1

Total # of neighbors = 3626374
Ave neighs/atom = 114.199
Ave special neighs/atom = 5.09986
Neighbor list builds = 100
Dangerous builds = 100
velocity all zero linear
WARNING: Use special bonds = 0,1,1 with bond style fene (bond_fene.cpp:189)
Memory usage per processor = 18.891 Mbytes
Step sdpd_kin pTemp 
   44000 1.020963e+09 9.9698941e+08 
   44100 1.0244206e+09 1.0005055e+09 
   44200 1.0307085e+09 1.0071334e+09 
   44300 1.0269385e+09 1.0034471e+09 
   44400 1.0270612e+09 1.0033406e+09 
   44500 1.0333387e+09 1.009503e+09 
   44600 1.0268769e+09 1.0029513e+09 
   44700 1.032683e+09 1.0090013e+09 
   44800 1.0282877e+09 1.0047321e+09 
   44900 1.0247384e+09 1.0012482e+09 
   45000 1.029139e+09 1.0062007e+09 
Loop time of 666.031 on 6 procs for 1000 steps with 31755 atoms

Pair  time (%) = 602.364 (90.4408)
Bond  time (%) = 0.793807 (0.119185)
Neigh time (%) = 5.16652 (0.775716)
Comm  time (%) = 22.6338 (3.3983)
Outpt time (%) = 2.10092 (0.315438)
Other time (%) = 32.9726 (4.9506)

Nlocal:    5292.5 ave 5443 max 5168 min
Histogram: 1 1 0 0 1 1 1 0 0 1
Nghost:    7877.67 ave 7990 max 7794 min
Histogram: 2 1 0 0 1 0 0 0 0 2
Neighs:    302952 ave 319366 max 286332 min
Histogram: 1 0 1 0 1 1 0 1 0 1
FullNghs: 605904 ave 638137 max 573810 min
Histogram: 1 0 1 0 1 1 0 1 0 1

Total # of neighbors = 3635424
Ave neighs/atom = 114.484
Ave special neighs/atom = 5.09986
Neighbor list builds = 100
Dangerous builds = 100
velocity all zero linear
WARNING: Use special bonds = 0,1,1 with bond style fene (bond_fene.cpp:189)
Memory usage per processor = 18.891 Mbytes
Step sdpd_kin pTemp 
   45000 1.029139e+09 1.0062007e+09 
   45100 1.0289051e+09 1.0058361e+09 
   45200 1.0270376e+09 1.0039687e+09 
   45300 1.0314378e+09 1.0082237e+09 
   45400 1.0258452e+09 1.0028397e+09 
   45500 1.0217689e+09 9.9861899e+08 
   45600 1.0238366e+09 1.0006626e+09 
   45700 1.0220143e+09 9.9880892e+08 
   45800 1.0318643e+09 1.0091441e+09 
   45900 1.0314554e+09 1.0083096e+09 
   46000 1.0253513e+09 1.0023343e+09 
Loop time of 668.309 on 6 procs for 1000 steps with 31755 atoms

Pair  time (%) = 600.844 (89.9051)
Bond  time (%) = 0.790666 (0.118308)
Neigh time (%) = 5.13889 (0.768939)
Comm  time (%) = 26.8025 (4.01049)
Outpt time (%) = 2.10105 (0.314383)
Other time (%) = 32.6318 (4.88274)

Nlocal:    5292.5 ave 5382 max 5245 min
Histogram: 2 1 0 1 0 1 0 0 0 1
Nghost:    7859.67 ave 8029 max 7650 min
Histogram: 1 0 0 1 0 2 0 0 1 1
Neighs:    301949 ave 313610 max 294553 min
Histogram: 1 1 1 0 2 0 0 0 0 1
FullNghs: 603898 ave 628297 max 589324 min
Histogram: 2 0 1 1 0 1 0 0 0 1

Total # of neighbors = 3623390
Ave neighs/atom = 114.105
Ave special neighs/atom = 5.09986
Neighbor list builds = 100
Dangerous builds = 100
velocity all zero linear
WARNING: Use special bonds = 0,1,1 with bond style fene (bond_fene.cpp:189)
Memory usage per processor = 18.891 Mbytes
Step sdpd_kin pTemp 
   46000 1.0253513e+09 1.0023343e+09 
   46100 1.0299485e+09 1.0072765e+09 
   46200 1.0231844e+09 1.0008441e+09 
   46300 1.0272117e+09 1.0048804e+09 
   46400 1.0286253e+09 1.0055527e+09 
   46500 1.0249206e+09 1.0022096e+09 
   46600 1.0209771e+09 9.982461e+08 
   46700 1.022338e+09 1.0000694e+09 
   46800 1.0275957e+09 1.004899e+09 
   46900 1.0285921e+09 1.0060867e+09 
   47000 1.0248818e+09 1.0028748e+09 
Loop time of 671.621 on 6 procs for 1000 steps with 31755 atoms

Pair  time (%) = 598.846 (89.1643)
Bond  time (%) = 0.793477 (0.118144)
Neigh time (%) = 5.14777 (0.76647)
Comm  time (%) = 31.6664 (4.71492)
Outpt time (%) = 2.09314 (0.311656)
Other time (%) = 33.074 (4.9245)

Nlocal:    5292.5 ave 5489 max 5176 min
Histogram: 1 1 0 3 0 0 0 0 0 1
Nghost:    7851.33 ave 7984 max 7705 min
Histogram: 1 0 1 0 0 1 1 1 0 1
Neighs:    302416 ave 323836 max 288298 min
Histogram: 1 0 1 2 1 0 0 0 0 1
FullNghs: 604833 ave 647394 max 578614 min
Histogram: 1 0 2 1 1 0 0 0 0 1

Total # of neighbors = 3628998
Ave neighs/atom = 114.281
Ave special neighs/atom = 5.09986
Neighbor list builds = 100
Dangerous builds = 100
velocity all zero linear
WARNING: Use special bonds = 0,1,1 with bond style fene (bond_fene.cpp:189)
Memory usage per processor = 18.891 Mbytes
Step sdpd_kin pTemp 
   47000 1.0248818e+09 1.0028748e+09 
   47100 1.0276296e+09 1.0057844e+09 
   47200 1.0253392e+09 1.0034588e+09 
   47300 1.0232494e+09 1.0017991e+09 
   47400 1.0225342e+09 1.0010496e+09 
   47500 1.026719e+09 1.0050098e+09 
   47600 1.024666e+09 1.0031632e+09 
   47700 1.0175674e+09 9.9588441e+08 
   47800 1.0175736e+09 9.9552415e+08 
   47900 1.0244235e+09 1.0017428e+09 
   48000 1.0236167e+09 1.0011436e+09 
Loop time of 671.054 on 6 procs for 1000 steps with 31755 atoms

Pair  time (%) = 599.759 (89.3756)
Bond  time (%) = 0.795776 (0.118586)
Neigh time (%) = 5.14765 (0.767099)
Comm  time (%) = 29.0666 (4.33148)
Outpt time (%) = 2.09788 (0.312625)
Other time (%) = 34.1879 (5.09465)

Nlocal:    5292.5 ave 5393 max 5171 min
Histogram: 1 0 0 1 0 1 1 1 0 1
Nghost:    7857.83 ave 8007 max 7776 min
Histogram: 2 1 1 0 0 0 1 0 0 1
Neighs:    302813 ave 313498 max 293895 min
Histogram: 1 1 1 0 1 0 0 0 1 1
FullNghs: 605626 ave 627399 max 585867 min
Histogram: 1 1 0 1 0 1 0 0 1 1

Total # of neighbors = 3633754
Ave neighs/atom = 114.431
Ave special neighs/atom = 5.09986
Neighbor list builds = 100
Dangerous builds = 100
velocity all zero linear
WARNING: Use special bonds = 0,1,1 with bond style fene (bond_fene.cpp:189)
Memory usage per processor = 18.891 Mbytes
Step sdpd_kin pTemp 
   48000 1.0236166e+09 1.0011436e+09 
   48100 1.0222129e+09 9.9931099e+08 
   48200 1.0352772e+09 1.0131063e+09 
   48300 1.024264e+09 1.0023631e+09 
   48400 1.0236294e+09 1.0012361e+09 
   48500 1.0248066e+09 1.0016969e+09 
   48600 1.025582e+09 1.0029429e+09 
   48700 1.0300885e+09 1.0069791e+09 
   48800 1.0254865e+09 1.0025705e+09 
   48900 1.024039e+09 1.0016475e+09 
   49000 1.030857e+09 1.0084245e+09 
Loop time of 662.374 on 6 procs for 1000 steps with 31755 atoms

Pair  time (%) = 602.236 (90.9207)
Bond  time (%) = 0.797859 (0.120454)
Neigh time (%) = 5.15691 (0.77855)
Comm  time (%) = 19.0172 (2.87106)
Outpt time (%) = 2.10398 (0.317642)
Other time (%) = 33.0628 (4.99156)

Nlocal:    5292.5 ave 5450 max 5184 min
Histogram: 1 0 1 2 1 0 0 0 0 1
Nghost:    7981.67 ave 8094 max 7873 min
Histogram: 1 0 1 1 1 0 0 0 1 1
Neighs:    302520 ave 315909 max 291053 min
Histogram: 1 0 2 0 0 1 1 0 0 1
FullNghs: 605039 ave 631435 max 580644 min
Histogram: 1 0 0 2 0 1 1 0 0 1

Total # of neighbors = 3630236
Ave neighs/atom = 114.32
Ave special neighs/atom = 5.09986
Neighbor list builds = 100
Dangerous builds = 100
velocity all zero linear
WARNING: Use special bonds = 0,1,1 with bond style fene (bond_fene.cpp:189)
Memory usage per processor = 18.891 Mbytes
Step sdpd_kin pTemp 
   49000 1.0308568e+09 1.0084245e+09 
   49100 1.0224802e+09 9.9952606e+08 
   49200 1.0282648e+09 1.005706e+09 
   49300 1.0194644e+09 9.9687615e+08 
   49400  1.03212e+09 1.0093036e+09 
   49500 1.0385237e+09 1.0157664e+09 
   49600 1.021358e+09 9.9834528e+08 
   49700 1.025015e+09 1.0020999e+09 
   49800 1.0277542e+09 1.0048234e+09 
   49900 1.0286382e+09 1.0058787e+09 
   50000 1.0251251e+09 1.0021926e+09 
Loop time of 679.134 on 6 procs for 1000 steps with 31755 atoms

Pair  time (%) = 600.231 (88.3818)
Bond  time (%) = 0.783435 (0.115358)
Neigh time (%) = 5.14061 (0.756937)
Comm  time (%) = 37.3376 (5.49783)
Outpt time (%) = 2.12088 (0.312293)
Other time (%) = 33.5203 (4.93575)

Nlocal:    5292.5 ave 5495 max 5120 min
Histogram: 1 0 1 1 1 0 0 1 0 1
Nghost:    7987.17 ave 8054 max 7902 min
Histogram: 1 1 0 1 0 0 0 0 1 2
Neighs:    303178 ave 321853 max 288902 min
Histogram: 1 2 0 0 1 0 0 1 0 1
FullNghs: 606357 ave 643072 max 578878 min
Histogram: 1 2 0 0 1 0 0 1 0 1

Total # of neighbors = 3638140
Ave neighs/atom = 114.569
Ave special neighs/atom = 5.09986
Neighbor list builds = 100
Dangerous builds = 99
velocity all zero linear
WARNING: Use special bonds = 0,1,1 with bond style fene (bond_fene.cpp:189)
Memory usage per processor = 18.1281 Mbytes
Step sdpd_kin pTemp 
   50000 1.0251251e+09 1.0021926e+09 
   50100 1.0311755e+09 1.008086e+09 
   50200 1.028891e+09 1.0060418e+09 
   50300 1.0209861e+09 9.9820528e+08 
   50400 1.0169095e+09 9.9409874e+08 
   50500 1.0243161e+09 1.0011251e+09 
   50600 1.0203603e+09 9.9744929e+08 
   50700 1.0208859e+09 9.9779893e+08 
   50800 1.0267489e+09 1.0036314e+09 
   50900 1.035037e+09 1.0117708e+09 
   51000 1.0212882e+09 9.9816831e+08 
Loop time of 675.01 on 6 procs for 1000 steps with 31755 atoms

Pair  time (%) = 601.877 (89.1655)
Bond  time (%) = 0.782846 (0.115975)
Neigh time (%) = 5.14248 (0.761837)
Comm  time (%) = 30.3689 (4.49903)
Outpt time (%) = 2.10989 (0.312571)
Other time (%) = 34.7295 (5.14504)

Nlocal:    5292.5 ave 5416 max 5138 min
Histogram: 1 0 0 0 2 1 0 0 1 1
Nghost:    7868.33 ave 8129 max 7614 min
Histogram: 2 0 0 0 1 0 1 1 0 1
Neighs:    302762 ave 315073 max 291005 min
Histogram: 1 0 1 1 0 1 0 0 1 1
FullNghs: 605524 ave 630049 max 582542 min
Histogram: 1 0 1 1 0 1 0 0 1 1

Total # of neighbors = 3633142
Ave neighs/atom = 114.412
Ave special neighs/atom = 5.09986
Neighbor list builds = 100
Dangerous builds = 100
velocity all zero linear
WARNING: Use special bonds = 0,1,1 with bond style fene (bond_fene.cpp:189)
Memory usage per processor = 18.891 Mbytes
Step sdpd_kin pTemp 
   51000 1.0212882e+09 9.9816831e+08 
   51100 1.0257381e+09 1.0028555e+09 
   51200 1.0272866e+09 1.0041826e+09 
   51300 1.0258354e+09 1.003144e+09 
   51400 1.0266249e+09 1.0035723e+09 
   51500 1.0273563e+09 1.0041283e+09 
   51600 1.0289104e+09 1.0055542e+09 
   51700 1.0267486e+09 1.0034473e+09 
   51800 1.035231e+09 1.0114501e+09 
   51900 1.031588e+09 1.0082437e+09 
   52000 1.0232718e+09 9.9952508e+08 
Loop time of 663.024 on 6 procs for 1000 steps with 31755 atoms

Pair  time (%) = 601.353 (90.6986)
Bond  time (%) = 0.792216 (0.119485)
Neigh time (%) = 5.15106 (0.776904)
Comm  time (%) = 19.6939 (2.97031)
Outpt time (%) = 2.10227 (0.317074)
Other time (%) = 33.931 (5.11762)

Nlocal:    5292.5 ave 5347 max 5219 min
Histogram: 1 0 0 0 2 1 0 0 0 2
Nghost:    7851 ave 8013 max 7704 min
Histogram: 1 0 0 2 0 1 1 0 0 1
Neighs:    303656 ave 309961 max 294989 min
Histogram: 1 0 1 0 0 1 0 1 1 1
FullNghs: 607312 ave 619053 max 589713 min
Histogram: 1 0 1 0 0 0 1 0 1 2

Total # of neighbors = 3643870
Ave neighs/atom = 114.749
Ave special neighs/atom = 5.09986
Neighbor list builds = 100
Dangerous builds = 100
velocity all zero linear
WARNING: Use special bonds = 0,1,1 with bond style fene (bond_fene.cpp:189)
Memory usage per processor = 18.891 Mbytes
Step sdpd_kin pTemp 
   52000 1.0232717e+09 9.9952508e+08 
   52100 1.0278862e+09 1.0040582e+09 
   52200 1.0242481e+09 9.9966561e+08 
   52300 1.0363457e+09 1.0114109e+09 
   52400 1.0296663e+09 1.0053087e+09 
   52500 1.0291701e+09 1.0049627e+09 
   52600 1.0294461e+09 1.0052551e+09 
   52700 1.0286047e+09 1.0047459e+09 
   52800 1.0317344e+09 1.0077091e+09 
   52900 1.0306326e+09 1.0065588e+09 
   53000 1.0246011e+09 1.0006769e+09 
Loop time of 661.649 on 6 procs for 1000 steps with 31755 atoms

Pair  time (%) = 600.702 (90.7887)
Bond  time (%) = 0.787544 (0.119028)
Neigh time (%) = 5.1362 (0.776273)
Comm  time (%) = 19.6233 (2.96582)
Outpt time (%) = 2.09046 (0.315947)
Other time (%) = 33.3091 (5.03426)

Nlocal:    5292.5 ave 5405 max 5104 min
Histogram: 1 0 1 0 0 0 0 1 1 2
Nghost:    7812.5 ave 8045 max 7598 min
Histogram: 2 0 1 0 0 0 0 1 1 1
Neighs:    302272 ave 312485 max 280113 min
Histogram: 1 0 0 1 0 0 0 0 1 3
FullNghs: 604545 ave 626017 max 561756 min
Histogram: 1 0 1 0 0 0 0 0 1 3

Total # of neighbors = 3627270
Ave neighs/atom = 114.227
Ave special neighs/atom = 5.09986
Neighbor list builds = 100
Dangerous builds = 100
velocity all zero linear
WARNING: Use special bonds = 0,1,1 with bond style fene (bond_fene.cpp:189)
Memory usage per processor = 18.1281 Mbytes
Step sdpd_kin pTemp 
   53000 1.024601e+09 1.0006769e+09 
   53100 1.0280538e+09 1.0038125e+09 
   53200 1.0292504e+09 1.0049517e+09 
   53300 1.0243646e+09 1.0004106e+09 
   53400 1.0359577e+09 1.0119155e+09 
   53500 1.0215963e+09 9.9767777e+08 
   53600 1.0236111e+09 9.997792e+08 
   53700 1.0265651e+09 1.0026228e+09 
   53800 1.0366413e+09 1.0124153e+09 
   53900 1.0326587e+09 1.0082405e+09 
   54000 1.0213672e+09 9.9768095e+08 
Loop time of 683.052 on 6 procs for 1000 steps with 31755 atoms

Pair  time (%) = 600.893 (87.9718)
Bond  time (%) = 0.77888 (0.114029)
Neigh time (%) = 5.13666 (0.752016)
Comm  time (%) = 40.8529 (5.98093)
Outpt time (%) = 2.10459 (0.308116)
Other time (%) = 33.2857 (4.87309)

Nlocal:    5292.5 ave 5399 max 5073 min
Histogram: 1 0 0 0 0 0 1 2 0 2
Nghost:    7864.33 ave 8238 max 7444 min
Histogram: 1 0 0 1 0 1 2 0 0 1
Neighs:    301889 ave 317210 max 277771 min
Histogram: 1 0 0 0 0 2 0 1 0 2
FullNghs: 603778 ave 634164 max 555399 min
Histogram: 1 0 0 0 0 2 0 1 0 2

Total # of neighbors = 3622668
Ave neighs/atom = 114.082
Ave special neighs/atom = 5.09986
Neighbor list builds = 100
Dangerous builds = 100
velocity all zero linear
WARNING: Use special bonds = 0,1,1 with bond style fene (bond_fene.cpp:189)
Memory usage per processor = 18.891 Mbytes
Step sdpd_kin pTemp 
   54000 1.021367e+09 9.9768095e+08 
   54100 1.0207089e+09 9.9652815e+08 
   54200 1.0270795e+09  1.00336e+09 
   54300 1.0304188e+09 1.0063721e+09 
   54400 1.0285673e+09 1.0048606e+09 
   54500 1.021641e+09 9.9758473e+08 
   54600 1.0210791e+09 9.9718265e+08 
   54700 1.0286391e+09 1.0048966e+09 
   54800 1.0379392e+09 1.0139162e+09 
   54900 1.0222649e+09 9.981512e+08 
   55000 1.0220531e+09 9.9832415e+08 
Loop time of 668.351 on 6 procs for 1000 steps with 31755 atoms

Pair  time (%) = 598.998 (89.6232)
Bond  time (%) = 0.779166 (0.11658)
Neigh time (%) = 5.13136 (0.767764)
Comm  time (%) = 26.7769 (4.00641)
Outpt time (%) = 2.10046 (0.314275)
Other time (%) = 34.5659 (5.17181)

Nlocal:    5292.5 ave 5424 max 5114 min
Histogram: 1 0 0 1 0 0 1 2 0 1
Nghost:    7810.33 ave 7971 max 7552 min
Histogram: 1 1 0 0 0 0 1 0 1 2
Neighs:    300830 ave 309116 max 285902 min
Histogram: 1 1 0 0 0 0 0 0 1 3
FullNghs: 601660 ave 618143 max 572149 min
Histogram: 1 1 0 0 0 0 0 0 2 2

Total # of neighbors = 3609958
Ave neighs/atom = 113.682
Ave special neighs/atom = 5.09986
Neighbor list builds = 100
Dangerous builds = 100
velocity all zero linear
WARNING: Use special bonds = 0,1,1 with bond style fene (bond_fene.cpp:189)
Memory usage per processor = 18.1281 Mbytes
Step sdpd_kin pTemp 
   55000 1.0220527e+09 9.9832415e+08 
   55100 1.0263683e+09 1.0025301e+09 
   55200 1.0253403e+09 1.0012989e+09 
   55300 1.0293984e+09 1.0056461e+09 
   55400 1.0244441e+09 1.0006206e+09 
   55500 1.0250581e+09 1.0012651e+09 
   55600 1.0245264e+09 1.0010261e+09 
   55700 1.0254901e+09 1.0021584e+09 
   55800 1.0284223e+09 1.0049864e+09 
   55900 1.0267766e+09 1.0039364e+09 
   56000 1.0268424e+09 1.0037022e+09 
Loop time of 665.718 on 6 procs for 1000 steps with 31755 atoms

Pair  time (%) = 598.269 (89.8683)
Bond  time (%) = 0.784223 (0.117801)
Neigh time (%) = 5.14599 (0.772999)
Comm  time (%) = 26.0641 (3.91519)
Outpt time (%) = 2.09566 (0.314797)
Other time (%) = 33.3586 (5.01091)

Nlocal:    5292.5 ave 5397 max 5179 min
Histogram: 1 0 0 1 0 1 2 0 0 1
Nghost:    7872 ave 8060 max 7719 min
Histogram: 1 1 0 2 0 0 0 1 0 1
Neighs:    302054 ave 314688 max 287927 min
Histogram: 1 0 0 0 2 1 0 1 0 1
FullNghs: 604108 ave 629201 max 576242 min
Histogram: 1 0 0 0 2 1 0 1 0 1

Total # of neighbors = 3624646
Ave neighs/atom = 114.144
Ave special neighs/atom = 5.09986
Neighbor list builds = 100
Dangerous builds = 100
velocity all zero linear
WARNING: Use special bonds = 0,1,1 with bond style fene (bond_fene.cpp:189)
Memory usage per processor = 18.1281 Mbytes
Step sdpd_kin pTemp 
   56000 1.0268421e+09 1.0037022e+09 
   56100 1.0296995e+09 1.0061255e+09 
   56200 1.0307511e+09 1.0074883e+09 
   56300 1.0293352e+09 1.0060175e+09 
   56400 1.0214963e+09 9.9775231e+08 
   56500 1.024544e+09 1.0006561e+09 
   56600 1.0264739e+09 1.0021687e+09 
   56700 1.0364467e+09 1.0122524e+09 
   56800 1.0295312e+09 1.0060422e+09 
   56900 1.0262853e+09 1.0027248e+09 
   57000 1.0272597e+09 1.0044268e+09 
Loop time of 673.041 on 6 procs for 1000 steps with 31755 atoms

Pair  time (%) = 600.491 (89.2206)
Bond  time (%) = 0.796146 (0.118291)
Neigh time (%) = 5.13931 (0.763595)
Comm  time (%) = 30.7527 (4.56922)
Outpt time (%) = 2.10418 (0.312637)
Other time (%) = 33.7577 (5.0157)

Nlocal:    5292.5 ave 5461 max 5192 min
Histogram: 3 0 1 0 0 0 0 0 1 1
Nghost:    7917.83 ave 8045 max 7750 min
Histogram: 1 0 0 1 0 2 0 0 0 2
Neighs:    302108 ave 319069 max 292620 min
Histogram: 3 1 0 0 0 0 0 0 1 1
FullNghs: 604217 ave 638644 max 584416 min
Histogram: 3 1 0 0 0 0 0 0 0 2

Total # of neighbors = 3625300
Ave neighs/atom = 114.165
Ave special neighs/atom = 5.09986
Neighbor list builds = 100
Dangerous builds = 100
velocity all zero linear
WARNING: Use special bonds = 0,1,1 with bond style fene (bond_fene.cpp:189)
Memory usage per processor = 18.1281 Mbytes
Step sdpd_kin pTemp 
   57000 1.0272595e+09 1.0044268e+09 
   57100 1.0247103e+09 1.0016377e+09 
   57200 1.0232621e+09 1.0002406e+09 
   57300 1.0277277e+09 1.0050512e+09 
   57400 1.0187483e+09 9.9647625e+08 
   57500 1.0190061e+09 9.9645344e+08 
   57600 1.0201544e+09 9.9829651e+08 
   57700 1.0243689e+09 1.0025894e+09 
   57800 1.0302385e+09 1.0084637e+09 
   57900 1.0282556e+09 1.0067706e+09 
   58000 1.0237574e+09 1.0024054e+09 
Loop time of 670.832 on 6 procs for 1000 steps with 31755 atoms

Pair  time (%) = 601.877 (89.7209)
Bond  time (%) = 0.787178 (0.117344)
Neigh time (%) = 5.15595 (0.768591)
Comm  time (%) = 27.2219 (4.05794)
Outpt time (%) = 2.11276 (0.314946)
Other time (%) = 33.6773 (5.02023)

Nlocal:    5292.5 ave 5385 max 5176 min
Histogram: 1 0 1 0 0 1 0 2 0 1
Nghost:    7840.5 ave 7993 max 7738 min
Histogram: 1 1 1 1 0 0 1 0 0 1
Neighs:    302338 ave 311704 max 288964 min
Histogram: 1 0 0 1 0 0 1 2 0 1
FullNghs: 604676 ave 622493 max 579397 min
Histogram: 1 0 0 1 0 0 1 2 0 1

Total # of neighbors = 3628054
Ave neighs/atom = 114.251
Ave special neighs/atom = 5.09986
Neighbor list builds = 100
Dangerous builds = 100
velocity all zero linear
WARNING: Use special bonds = 0,1,1 with bond style fene (bond_fene.cpp:189)
Memory usage per processor = 18.1281 Mbytes
Step sdpd_kin pTemp 
   58000 1.0237571e+09 1.0024054e+09 
   58100 1.0190066e+09 9.9752784e+08 
   58200 1.0225249e+09 1.0012413e+09 
   58300 1.0264807e+09 1.0053226e+09 
   58400 1.023837e+09 1.0030692e+09 
   58500 1.0259692e+09 1.0048764e+09 
   58600 1.0241574e+09 1.0034023e+09 
   58700 1.0180292e+09 9.9709751e+08 
   58800 1.0095064e+09 9.8848573e+08 
   58900 1.0223804e+09 1.001081e+09 
   59000 1.0222096e+09 1.0010114e+09 
Loop time of 667.782 on 6 procs for 1000 steps with 31755 atoms

Pair  time (%) = 601.834 (90.1244)
Bond  time (%) = 0.783775 (0.11737)
Neigh time (%) = 5.13665 (0.769211)
Comm  time (%) = 24.323 (3.64235)
Outpt time (%) = 2.09847 (0.314244)
Other time (%) = 33.6055 (5.0324)

Nlocal:    5292.5 ave 5464 max 5176 min
Histogram: 2 1 0 1 0 0 0 0 1 1
Nghost:    7864.17 ave 7991 max 7703 min
Histogram: 2 0 0 0 0 0 1 1 0 2
Neighs:    303043 ave 315647 max 293702 min
Histogram: 2 0 2 0 0 0 0 0 0 2
FullNghs: 606086 ave 631558 max 587168 min
Histogram: 2 0 2 0 0 0 0 0 0 2

Total # of neighbors = 3636514
Ave neighs/atom = 114.518
Ave special neighs/atom = 5.09986
Neighbor list builds = 100
Dangerous builds = 100
velocity all zero linear
WARNING: Use special bonds = 0,1,1 with bond style fene (bond_fene.cpp:189)
Memory usage per processor = 18.891 Mbytes
Step sdpd_kin pTemp 
   59000 1.0222096e+09 1.0010114e+09 
   59100 1.023944e+09 1.002502e+09 
   59200 1.0174496e+09 9.9637154e+08 
   59300 1.0163364e+09 9.9540825e+08 
   59400 1.0241622e+09 1.0032382e+09 
   59500 1.0251249e+09 1.0045969e+09 
   59600 1.0137301e+09 9.9327485e+08 
   59700 1.0175094e+09 9.9684905e+08 
   59800 1.0169799e+09 9.9609391e+08 
   59900 1.0245299e+09 1.0034825e+09 
   60000 1.0255625e+09 1.0039215e+09 
Loop time of 663.191 on 6 procs for 1000 steps with 31755 atoms

Pair  time (%) = 600.707 (90.5784)
Bond  time (%) = 0.788621 (0.118913)
Neigh time (%) = 5.14317 (0.775518)
Comm  time (%) = 20.7323 (3.12614)
Outpt time (%) = 2.12427 (0.320311)
Other time (%) = 33.6951 (5.08075)

Nlocal:    5292.5 ave 5360 max 5107 min
Histogram: 1 0 0 0 0 0 1 0 1 3
Nghost:    7717.83 ave 7899 max 7431 min
Histogram: 1 0 0 1 1 0 0 0 1 2
Neighs:    302328 ave 309424 max 285514 min
Histogram: 1 0 0 0 0 0 2 0 1 2
FullNghs: 604656 ave 620768 max 570607 min
Histogram: 1 0 0 0 0 0 2 0 1 2

Total # of neighbors = 3627938
Ave neighs/atom = 114.248
Ave special neighs/atom = 5.09986
Neighbor list builds = 100
Dangerous builds = 99
velocity all zero linear
WARNING: Use special bonds = 0,1,1 with bond style fene (bond_fene.cpp:189)
Memory usage per processor = 18.891 Mbytes
Step sdpd_kin pTemp 
   60000 1.0255623e+09 1.0039215e+09 
   60100 1.0233733e+09 1.0021433e+09 
   60200 1.0254237e+09 1.0038204e+09 
   60300 1.0249332e+09 1.003283e+09 
   60400 1.0145918e+09 9.9261204e+08 
   60500 1.0283177e+09 1.0066526e+09 
   60600 1.0234923e+09 1.0010748e+09 
   60700 1.0180181e+09 9.9554409e+08 
   60800 1.0243247e+09 1.0024213e+09 
   60900 1.0357527e+09 1.0135619e+09 
   61000 1.0204858e+09 9.9811225e+08 
Loop time of 665.533 on 6 procs for 1000 steps with 31755 atoms

Pair  time (%) = 602.556 (90.5373)
Bond  time (%) = 0.791902 (0.118988)
Neigh time (%) = 5.14013 (0.772333)
Comm  time (%) = 22.1445 (3.32734)
Outpt time (%) = 2.10983 (0.317013)
Other time (%) = 32.791 (4.92702)

Nlocal:    5292.5 ave 5408 max 5204 min
Histogram: 1 1 1 0 1 0 0 1 0 1
Nghost:    7729 ave 7892 max 7571 min
Histogram: 1 1 0 1 0 1 0 0 0 2
Neighs:    302753 ave 314639 max 295164 min
Histogram: 1 1 2 0 0 0 0 1 0 1
FullNghs: 605506 ave 631019 max 591763 min
Histogram: 2 1 1 0 0 0 0 1 0 1

Total # of neighbors = 3633034
Ave neighs/atom = 114.408
Ave special neighs/atom = 5.09986
Neighbor list builds = 100
Dangerous builds = 100
velocity all zero linear
WARNING: Use special bonds = 0,1,1 with bond style fene (bond_fene.cpp:189)
Memory usage per processor = 18.891 Mbytes
Step sdpd_kin pTemp 
   61000 1.0204851e+09 9.9811225e+08 
   61100 1.0291396e+09 1.0072429e+09 
   61200 1.0258835e+09 1.0041842e+09 
   61300 1.0223379e+09 1.0008041e+09 
   61400 1.0191558e+09 9.9791281e+08 
   61500 1.024674e+09 1.0039028e+09 
   61600 1.0273277e+09 1.0060032e+09 
   61700 1.0293192e+09 1.0083795e+09 
   61800 1.0202234e+09 9.9937613e+08 
   61900 1.0221355e+09 1.0011507e+09 
   62000 1.0224069e+09 1.0014242e+09 
Loop time of 672.278 on 6 procs for 1000 steps with 31755 atoms

Pair  time (%) = 603.78 (89.8109)
Bond  time (%) = 0.79054 (0.117591)
Neigh time (%) = 5.14861 (0.765845)
Comm  time (%) = 25.595 (3.80721)
Outpt time (%) = 2.11308 (0.314317)
Other time (%) = 34.8515 (5.18409)

Nlocal:    5292.5 ave 5444 max 5148 min
Histogram: 2 0 0 0 1 1 0 1 0 1
Nghost:    7743.33 ave 7843 max 7613 min
Histogram: 2 0 0 0 1 0 0 0 1 2
Neighs:    302180 ave 317824 max 285510 min
Histogram: 1 1 0 0 0 2 0 0 0 2
FullNghs: 604359 ave 635852 max 570860 min
Histogram: 1 1 0 0 1 1 0 0 0 2

Total # of neighbors = 3626156
Ave neighs/atom = 114.192
Ave special neighs/atom = 5.09986
Neighbor list builds = 100
Dangerous builds = 100
velocity all zero linear
WARNING: Use special bonds = 0,1,1 with bond style fene (bond_fene.cpp:189)
Memory usage per processor = 18.891 Mbytes
Step sdpd_kin pTemp 
   62000 1.0224053e+09 1.0014242e+09 
   62100 1.0210694e+09 1.0000531e+09 
   62200 1.0203223e+09 9.9948415e+08 
   62300 1.0334981e+09 1.0125672e+09 
   62400 1.0148299e+09 9.9315871e+08 
   62500 1.0326314e+09 1.0113889e+09 
   62600 1.0258907e+09 1.004681e+09 
   62700 1.0236703e+09 1.0025946e+09 
   62800 1.0253458e+09 1.0046097e+09 
   62900 1.0253576e+09 1.0049184e+09 
   63000 1.0291753e+09 1.0082298e+09 
Loop time of 676.544 on 6 procs for 1000 steps with 31755 atoms

Pair  time (%) = 602.584 (89.068)
Bond  time (%) = 0.781836 (0.115563)
Neigh time (%) = 5.1208 (0.756906)
Comm  time (%) = 32.7338 (4.83838)
Outpt time (%) = 2.10662 (0.311379)
Other time (%) = 33.2169 (4.90979)

Nlocal:    5292.5 ave 5474 max 5133 min
Histogram: 1 0 0 1 2 1 0 0 0 1
Nghost:    7712.17 ave 7924 max 7492 min
Histogram: 1 0 0 2 0 1 0 0 1 1
Neighs:    302365 ave 322326 max 281701 min
Histogram: 1 0 0 1 2 0 0 1 0 1
FullNghs: 604729 ave 644240 max 564126 min
Histogram: 1 0 0 1 2 0 0 1 0 1

Total # of neighbors = 3628376
Ave neighs/atom = 114.262
Ave special neighs/atom = 5.09986
Neighbor list builds = 100
Dangerous builds = 100
velocity all zero linear
WARNING: Use special bonds = 0,1,1 with bond style fene (bond_fene.cpp:189)
Memory usage per processor = 18.891 Mbytes
Step sdpd_kin pTemp 
   63000 1.0291737e+09 1.0082298e+09 
   63100 1.025374e+09 1.0044706e+09 
   63200 1.0269055e+09 1.0058925e+09 
   63300 1.0228511e+09 1.0017494e+09 
   63400 1.0356548e+09 1.0142471e+09 
   63500 1.0262811e+09 1.005385e+09 
   63600 1.0222699e+09 1.0011186e+09 
   63700 1.0198794e+09 9.9881049e+08 
   63800 1.0234119e+09 1.0027375e+09 
   63900 1.0287351e+09 1.0082593e+09 
   64000 1.0238052e+09 1.0028397e+09 
Loop time of 694.917 on 6 procs for 1000 steps with 31755 atoms

Pair  time (%) = 607.807 (87.4647)
Bond  time (%) = 0.810522 (0.116636)
Neigh time (%) = 5.19644 (0.747778)
Comm  time (%) = 43.1685 (6.21203)
Outpt time (%) = 2.11686 (0.304621)
Other time (%) = 35.8174 (5.1542)

Nlocal:    5292.5 ave 5514 max 5143 min
Histogram: 1 1 0 1 1 1 0 0 0 1
Nghost:    7799.33 ave 7950 max 7667 min
Histogram: 2 0 1 0 0 1 0 0 0 2
Neighs:    303060 ave 325218 max 286235 min
Histogram: 1 0 1 0 2 1 0 0 0 1
FullNghs: 606120 ave 648273 max 573191 min
Histogram: 1 0 1 0 2 1 0 0 0 1

Total # of neighbors = 3636718
Ave neighs/atom = 114.524
Ave special neighs/atom = 5.09986
Neighbor list builds = 100
Dangerous builds = 100
velocity all zero linear
WARNING: Use special bonds = 0,1,1 with bond style fene (bond_fene.cpp:189)
Memory usage per processor = 18.891 Mbytes
Step sdpd_kin pTemp 
   64000 1.0238036e+09 1.0028397e+09 
   64100 1.0213465e+09 1.0003275e+09 
   64200 1.0194071e+09 9.9857323e+08 
   64300 1.0190043e+09 9.9832208e+08 
   64400 1.0307341e+09 1.0092455e+09 
   64500 1.0279801e+09 1.0071401e+09 
   64600 1.0306217e+09 1.0096382e+09 
   64700 1.0210348e+09 1.0005723e+09 
   64800 1.0158898e+09 9.9545183e+08 
   64900 1.023196e+09 1.002523e+09 
   65000 1.0254062e+09 1.0050831e+09 
Loop time of 696.998 on 6 procs for 1000 steps with 31755 atoms

Pair  time (%) = 607.522 (87.1627)
Bond  time (%) = 0.812142 (0.11652)
Neigh time (%) = 5.17982 (0.743161)
Comm  time (%) = 46.0142 (6.60177)
Outpt time (%) = 2.12066 (0.304256)
Other time (%) = 35.3488 (5.07158)

Nlocal:    5292.5 ave 5502 max 5158 min
Histogram: 1 1 1 1 0 1 0 0 0 1
Nghost:    7693.5 ave 7782 max 7492 min
Histogram: 1 0 0 0 0 1 0 1 1 2
Neighs:    303015 ave 324679 max 286833 min
Histogram: 1 0 0 2 2 0 0 0 0 1
FullNghs: 606030 ave 646800 max 573764 min
Histogram: 1 0 0 2 2 0 0 0 0 1

Total # of neighbors = 3636180
Ave neighs/atom = 114.507
Ave special neighs/atom = 5.09986
Neighbor list builds = 100
Dangerous builds = 100
velocity all zero linear
WARNING: Use special bonds = 0,1,1 with bond style fene (bond_fene.cpp:189)
Memory usage per processor = 18.891 Mbytes
Step sdpd_kin pTemp 
   65000 1.0254051e+09 1.0050831e+09 
   65100 1.0186583e+09 9.981766e+08 
   65200 1.0209775e+09 1.0005077e+09 
   65300 1.0269799e+09 1.006661e+09 
   65400 1.0206058e+09 1.0000434e+09 
   65500 1.0230293e+09 1.0017385e+09 
   65600 1.0179675e+09 9.9699365e+08 
   65700 1.0286634e+09 1.0073921e+09 
   65800 1.0276161e+09 1.0060467e+09 
   65900 1.0370883e+09 1.0157106e+09 
   66000 1.0181755e+09 9.9684987e+08 
Loop time of 704.169 on 6 procs for 1000 steps with 31755 atoms

Pair  time (%) = 612.331 (86.9579)
Bond  time (%) = 0.840306 (0.119333)
Neigh time (%) = 5.23223 (0.743036)
Comm  time (%) = 45.4264 (6.45106)
Outpt time (%) = 2.36094 (0.335281)
Other time (%) = 37.9784 (5.39336)

Nlocal:    5292.5 ave 5404 max 5059 min
Histogram: 1 0 0 0 0 0 1 2 0 2
Nghost:    7855.33 ave 8075 max 7604 min
Histogram: 1 0 0 1 0 1 1 1 0 1
Neighs:    302558 ave 314082 max 283004 min
Histogram: 1 0 0 0 0 1 2 0 1 1
FullNghs: 605116 ave 629569 max 565378 min
Histogram: 1 0 0 0 0 1 1 1 1 1

Total # of neighbors = 3630696
Ave neighs/atom = 114.335
Ave special neighs/atom = 5.09986
Neighbor list builds = 100
Dangerous builds = 100
velocity all zero linear
WARNING: Use special bonds = 0,1,1 with bond style fene (bond_fene.cpp:189)
Memory usage per processor = 18.891 Mbytes
Step sdpd_kin pTemp 
   66000 1.0181751e+09 9.9684987e+08 
   66100 1.0266275e+09 1.0050631e+09 
   66200 1.0247791e+09 1.0027708e+09 
   66300 1.0186248e+09 9.9626306e+08 
   66400 1.022428e+09 1.0002505e+09 
   66500 1.0227554e+09 1.000805e+09 
   66600 1.0143695e+09 9.9248317e+08 
   66700 1.0241279e+09 1.0022062e+09 
   66800 1.0279256e+09 1.0065901e+09 
   66900 1.027465e+09 1.0059089e+09 
   67000 1.0249209e+09 1.0035442e+09 
Loop time of 687.728 on 6 procs for 1000 steps with 31755 atoms

Pair  time (%) = 607.497 (88.3338)
Bond  time (%) = 0.807546 (0.117422)
Neigh time (%) = 5.16619 (0.751197)
Comm  time (%) = 37.8898 (5.50942)
Outpt time (%) = 2.12994 (0.309707)
Other time (%) = 34.2381 (4.97844)

Nlocal:    5292.5 ave 5490 max 5039 min
Histogram: 1 0 0 1 0 1 1 1 0 1
Nghost:    7838.67 ave 8028 max 7704 min
Histogram: 2 1 0 0 1 0 0 0 1 1
Neighs:    303251 ave 324389 max 277929 min
Histogram: 1 0 0 0 1 2 0 1 0 1
FullNghs: 606502 ave 648628 max 556515 min
Histogram: 1 0 0 0 1 2 0 1 0 1

Total # of neighbors = 3639014
Ave neighs/atom = 114.597
Ave special neighs/atom = 5.09986
Neighbor list builds = 100
Dangerous builds = 100
velocity all zero linear
WARNING: Use special bonds = 0,1,1 with bond style fene (bond_fene.cpp:189)
Memory usage per processor = 18.891 Mbytes
Step sdpd_kin pTemp 
   67000 1.0249206e+09 1.0035442e+09 
   67100 1.0239487e+09 1.0023563e+09 
   67200 1.0289753e+09 1.0073012e+09 
   67300 1.0320417e+09 1.0105683e+09 
   67400 1.0302153e+09 1.0089383e+09 
   67500 1.0203797e+09 9.9889422e+08 
   67600 1.0210556e+09 9.9994912e+08 
   67700 1.0268033e+09 1.0053239e+09 
   67800 1.0343648e+09 1.012939e+09 
   67900 1.0275263e+09 1.0060248e+09 
   68000 1.0231483e+09 1.0009345e+09 
Loop time of 688.325 on 6 procs for 1000 steps with 31755 atoms

Pair  time (%) = 604.34 (87.7987)
Bond  time (%) = 0.783496 (0.113827)
Neigh time (%) = 5.13555 (0.746095)
Comm  time (%) = 42.151 (6.12371)
Outpt time (%) = 2.11228 (0.306872)
Other time (%) = 33.802 (4.91077)

Nlocal:    5292.5 ave 5488 max 5104 min
Histogram: 1 0 1 1 0 1 0 1 0 1
Nghost:    7819.67 ave 7898 max 7748 min
Histogram: 1 1 0 1 0 0 1 1 0 1
Neighs:    302665 ave 320034 max 281876 min
Histogram: 1 0 0 1 1 0 1 1 0 1
FullNghs: 605330 ave 640641 max 565027 min
Histogram: 1 0 0 1 1 0 1 1 0 1

Total # of neighbors = 3631978
Ave neighs/atom = 114.375
Ave special neighs/atom = 5.09986
Neighbor list builds = 100
Dangerous builds = 100
velocity all zero linear
WARNING: Use special bonds = 0,1,1 with bond style fene (bond_fene.cpp:189)
Memory usage per processor = 18.891 Mbytes
Step sdpd_kin pTemp 
   68000 1.023148e+09 1.0009345e+09 
   68100 1.0245229e+09 1.0023862e+09 
   68200 1.0272646e+09 1.0049406e+09 
   68300 1.0305053e+09 1.0081799e+09 
   68400 1.0220979e+09 9.9942409e+08 
   68500 1.0290991e+09 1.006524e+09 
   68600 1.0215617e+09 9.9932255e+08 
   68700 1.0292201e+09 1.0071702e+09 
   68800 1.0234328e+09 1.0005166e+09 
   68900 1.0363447e+09 1.013856e+09 
   69000 1.0279344e+09 1.0050384e+09 
Loop time of 677.947 on 6 procs for 1000 steps with 31755 atoms

Pair  time (%) = 601.464 (88.7185)
Bond  time (%) = 0.77316 (0.114044)
Neigh time (%) = 5.11523 (0.754518)
Comm  time (%) = 34.262 (5.05378)
Outpt time (%) = 2.11793 (0.312404)
Other time (%) = 34.2145 (5.04678)

Nlocal:    5292.5 ave 5481 max 5140 min
Histogram: 2 0 0 0 2 0 0 1 0 1
Nghost:    7790.83 ave 7965 max 7625 min
Histogram: 1 0 1 0 1 1 1 0 0 1
Neighs:    302334 ave 319206 max 286560 min
Histogram: 2 0 0 0 1 0 1 1 0 1
FullNghs: 604668 ave 637795 max 573130 min
Histogram: 2 0 0 0 1 0 1 1 0 1

Total # of neighbors = 3628010
Ave neighs/atom = 114.25
Ave special neighs/atom = 5.09986
Neighbor list builds = 100
Dangerous builds = 100
velocity all zero linear
WARNING: Use special bonds = 0,1,1 with bond style fene (bond_fene.cpp:189)
Memory usage per processor = 18.891 Mbytes
Step sdpd_kin pTemp 
   69000 1.0279343e+09 1.0050384e+09 
   69100 1.0257448e+09 1.0029713e+09 
   69200 1.0311538e+09 1.0086314e+09 
   69300 1.0253425e+09 1.0032245e+09 
   69400 1.0183895e+09 9.9645304e+08 
   69500 1.0183728e+09 9.9654595e+08 
   69600 1.0308542e+09 1.0090681e+09 
   69700 1.0199648e+09 9.982178e+08 
   69800 1.0352831e+09 1.0135476e+09 
   69900 1.0307066e+09 1.0086929e+09 
   70000 1.0238723e+09 1.0022817e+09 
Loop time of 679.81 on 6 procs for 1000 steps with 31755 atoms

Pair  time (%) = 602.589 (88.6409)
Bond  time (%) = 0.781774 (0.114999)
Neigh time (%) = 5.14711 (0.75714)
Comm  time (%) = 33.8436 (4.9784)
Outpt time (%) = 2.12591 (0.312721)
Other time (%) = 35.322 (5.19586)

Nlocal:    5292.5 ave 5446 max 5115 min
Histogram: 1 0 1 0 1 0 1 0 1 1
Nghost:    7767.33 ave 7933 max 7613 min
Histogram: 1 0 0 2 0 1 1 0 0 1
Neighs:    302375 ave 313794 max 283355 min
Histogram: 1 0 0 0 1 0 1 1 0 2
FullNghs: 604749 ave 627867 max 568366 min
Histogram: 1 0 0 1 0 0 1 1 0 2

Total # of neighbors = 3628496
Ave neighs/atom = 114.265
Ave special neighs/atom = 5.09986
Neighbor list builds = 100
Dangerous builds = 99
velocity all zero linear
WARNING: Use special bonds = 0,1,1 with bond style fene (bond_fene.cpp:189)
Memory usage per processor = 18.891 Mbytes
Step sdpd_kin pTemp 
   70000 1.0238722e+09 1.0022817e+09 
   70100 1.0202271e+09   9.9832e+08 
   70200 1.0310183e+09 1.0092745e+09 
   70300 1.0185205e+09 9.9684564e+08 
   70400 1.0237358e+09 1.0028607e+09 
   70500 1.024132e+09 1.0035671e+09 
   70600 1.0259709e+09 1.0049388e+09 
   70700 1.018927e+09 9.9816343e+08 
   70800 1.0238426e+09 1.0032781e+09 
   70900 1.015158e+09 9.9440512e+08 
   71000 1.0228914e+09 1.0026216e+09 
Loop time of 669.896 on 6 procs for 1000 steps with 31755 atoms

Pair  time (%) = 602.827 (89.9882)
Bond  time (%) = 0.787249 (0.117518)
Neigh time (%) = 5.14371 (0.767838)
Comm  time (%) = 25.2563 (3.77018)
Outpt time (%) = 2.10072 (0.31359)
Other time (%) = 33.7809 (5.04271)

Nlocal:    5292.5 ave 5455 max 5106 min
Histogram: 1 1 0 0 0 1 1 0 1 1
Nghost:    7799.83 ave 7980 max 7676 min
Histogram: 1 0 3 0 0 0 1 0 0 1
Neighs:    302303 ave 313879 max 285285 min
Histogram: 2 0 0 0 0 0 0 1 0 3
FullNghs: 604606 ave 629272 max 570240 min
Histogram: 2 0 0 0 0 0 1 0 1 2

Total # of neighbors = 3627634
Ave neighs/atom = 114.238
Ave special neighs/atom = 5.09986
Neighbor list builds = 100
Dangerous builds = 100
velocity all zero linear
WARNING: Use special bonds = 0,1,1 with bond style fene (bond_fene.cpp:189)
Memory usage per processor = 18.891 Mbytes
Step sdpd_kin pTemp 
   71000 1.0228913e+09 1.0026216e+09 
   71100 1.0240521e+09 1.0037839e+09 
   71200 1.0298598e+09 1.0095169e+09 
   71300 1.0224792e+09 1.0020537e+09 
   71400 1.0300985e+09 1.0099748e+09 
   71500 1.0280491e+09 1.0075803e+09 
   71600 1.0235694e+09 1.0035193e+09 
   71700 1.0162599e+09 9.9585601e+08 
   71800 1.0264416e+09 1.0065016e+09 
   71900 1.0277514e+09 1.0071027e+09 
   72000  1.02524e+09 1.0049682e+09 
Loop time of 673.862 on 6 procs for 1000 steps with 31755 atoms

Pair  time (%) = 601.03 (89.1918)
Bond  time (%) = 0.786476 (0.116712)
Neigh time (%) = 5.13767 (0.762422)
Comm  time (%) = 30.5669 (4.53608)
Outpt time (%) = 2.09437 (0.310801)
Other time (%) = 34.2468 (5.08216)

Nlocal:    5292.5 ave 5442 max 5095 min
Histogram: 1 0 0 0 2 0 0 2 0 1
Nghost:    7796.17 ave 7835 max 7713 min
Histogram: 1 0 0 0 0 1 0 1 1 2
Neighs:    302135 ave 315634 max 283415 min
Histogram: 1 0 0 0 2 0 0 0 2 1
FullNghs: 604271 ave 630704 max 567894 min
Histogram: 1 0 0 0 2 0 0 0 2 1

Total # of neighbors = 3625624
Ave neighs/atom = 114.175
Ave special neighs/atom = 5.09986
Neighbor list builds = 100
Dangerous builds = 100
velocity all zero linear
WARNING: Use special bonds = 0,1,1 with bond style fene (bond_fene.cpp:189)
Memory usage per processor = 18.891 Mbytes
Step sdpd_kin pTemp 
   72000 1.0252399e+09 1.0049682e+09 
   72100 1.0210237e+09 1.0006882e+09 
   72200 1.023059e+09 1.0033396e+09 
   72300 1.032254e+09 1.0124036e+09 
   72400 1.0199542e+09 9.9989299e+08 
   72500 1.0266951e+09 1.0063784e+09 
   72600 1.0159578e+09 9.9560309e+08 
   72700 1.0292388e+09 1.0088476e+09 
   72800 1.0243342e+09 1.004155e+09 
   72900 1.0176988e+09 9.9758361e+08 
   73000 1.0147063e+09 9.9436956e+08 
Loop time of 674.917 on 6 procs for 1000 steps with 31755 atoms

Pair  time (%) = 602.429 (89.2596)
Bond  time (%) = 0.782192 (0.115894)
Neigh time (%) = 5.12984 (0.76007)
Comm  time (%) = 29.9955 (4.44432)
Outpt time (%) = 2.09986 (0.311128)
Other time (%) = 34.4811 (5.10894)

Nlocal:    5292.5 ave 5418 max 5111 min
Histogram: 2 0 0 0 0 0 0 1 1 2
Nghost:    7847 ave 7964 max 7713 min
Histogram: 1 1 0 0 1 0 0 2 0 1
Neighs:    303138 ave 315414 max 286748 min
Histogram: 2 0 0 0 0 0 1 1 0 2
FullNghs: 606277 ave 631083 max 573879 min
Histogram: 2 0 0 0 0 0 1 1 0 2

Total # of neighbors = 3637660
Ave neighs/atom = 114.554
Ave special neighs/atom = 5.09986
Neighbor list builds = 100
Dangerous builds = 100
velocity all zero linear
WARNING: Use special bonds = 0,1,1 with bond style fene (bond_fene.cpp:189)
Memory usage per processor = 18.891 Mbytes
Step sdpd_kin pTemp 
   73000 1.0147063e+09 9.9436956e+08 
   73100 1.024175e+09 1.0038045e+09 
   73200 1.0178179e+09 9.9725929e+08 
   73300 1.0172834e+09 9.9742077e+08 
   73400 1.0221275e+09 1.0019428e+09 
   73500 1.0242137e+09 1.0038536e+09 
   73600 1.0111851e+09 9.9101127e+08 
   73700 1.0252378e+09 1.0050744e+09 
   73800 1.019929e+09 1.0002029e+09 
   73900 1.0277621e+09 1.0072916e+09 
   74000 1.0208299e+09 1.0010498e+09 
Loop time of 681.016 on 6 procs for 1000 steps with 31755 atoms

Pair  time (%) = 604.197 (88.7199)
Bond  time (%) = 0.794526 (0.116668)
Neigh time (%) = 5.15286 (0.756643)
Comm  time (%) = 34.8332 (5.11488)
Outpt time (%) = 2.10057 (0.308447)
Other time (%) = 33.938 (4.98344)

Nlocal:    5292.5 ave 5431 max 5071 min
Histogram: 1 0 1 0 0 0 0 2 1 1
Nghost:    7923.17 ave 8133 max 7683 min
Histogram: 1 0 1 0 0 2 0 0 1 1
Neighs:    303677 ave 319819 max 278833 min
Histogram: 1 0 0 0 1 0 1 1 1 1
FullNghs: 607354 ave 638375 max 560521 min
Histogram: 1 0 0 0 1 1 0 1 1 1

Total # of neighbors = 3644122
Ave neighs/atom = 114.757
Ave special neighs/atom = 5.09986
Neighbor list builds = 100
Dangerous builds = 100
velocity all zero linear
WARNING: Use special bonds = 0,1,1 with bond style fene (bond_fene.cpp:189)
Memory usage per processor = 18.891 Mbytes
Step sdpd_kin pTemp 
   74000 1.0208298e+09 1.0010498e+09 
   74100 1.0192363e+09 9.9928053e+08 
   74200 1.0299971e+09 1.0103396e+09 
   74300 1.0321605e+09 1.0123824e+09 
   74400 1.0251892e+09 1.0053397e+09 
   74500 1.0207803e+09 9.9997982e+08 
   74600 1.0288517e+09 1.0082445e+09 
   74700 1.0303729e+09 1.0088259e+09 
   74800 1.0253987e+09 1.0039633e+09 
   74900 1.0246466e+09 1.0034274e+09 
   75000 1.0238897e+09 1.0023142e+09 
Loop time of 683.111 on 6 procs for 1000 steps with 31755 atoms

Pair  time (%) = 604.844 (88.5427)
Bond  time (%) = 0.797744 (0.116781)
Neigh time (%) = 5.15161 (0.75414)
Comm  time (%) = 35.8282 (5.24486)
Outpt time (%) = 2.10385 (0.307981)
Other time (%) = 34.3849 (5.03358)

Nlocal:    5292.5 ave 5461 max 5094 min
Histogram: 1 0 1 0 1 0 1 0 0 2
Nghost:    7791.5 ave 7874 max 7714 min
Histogram: 1 0 1 0 2 0 0 0 1 1
Neighs:    302889 ave 322857 max 278343 min
Histogram: 1 0 0 1 1 0 1 0 1 1
FullNghs: 605777 ave 644363 max 558881 min
Histogram: 1 0 0 1 1 0 1 0 1 1

Total # of neighbors = 3634664
Ave neighs/atom = 114.46
Ave special neighs/atom = 5.09986
Neighbor list builds = 100
Dangerous builds = 100
velocity all zero linear
WARNING: Use special bonds = 0,1,1 with bond style fene (bond_fene.cpp:189)
Memory usage per processor = 18.891 Mbytes
Step sdpd_kin pTemp 
   75000 1.0238897e+09 1.0023142e+09 
   75100 1.019099e+09 9.9721539e+08 
   75200 1.0256418e+09 1.0034664e+09 
   75300 1.0251164e+09 1.0026525e+09 
   75400 1.0230338e+09 1.0005942e+09 
   75500 1.0285804e+09 1.006193e+09 
   75600  1.03003e+09 1.0072732e+09 
   75700 1.0247782e+09 1.002232e+09 
   75800 1.0234781e+09 1.0012873e+09 
   75900 1.0146848e+09 9.9211175e+08 
   76000 1.0209459e+09 9.979561e+08 
Loop time of 685.106 on 6 procs for 1000 steps with 31755 atoms

Pair  time (%) = 602.838 (87.9919)
Bond  time (%) = 0.797765 (0.116444)
Neigh time (%) = 5.17586 (0.755482)
Comm  time (%) = 38.3241 (5.59388)
Outpt time (%) = 2.09874 (0.306338)
Other time (%) = 35.8718 (5.23595)

Nlocal:    5292.5 ave 5375 max 5189 min
Histogram: 1 1 0 0 0 0 2 0 1 1
Nghost:    7767.67 ave 7862 max 7648 min
Histogram: 2 0 0 0 0 0 1 1 0 2
Neighs:    303066 ave 314275 max 291952 min
Histogram: 1 1 0 0 0 2 0 0 1 1
FullNghs: 606131 ave 627854 max 583605 min
Histogram: 1 1 0 0 0 2 0 0 1 1

Total # of neighbors = 3636786
Ave neighs/atom = 114.526
Ave special neighs/atom = 5.09986
Neighbor list builds = 100
Dangerous builds = 100
velocity all zero linear
WARNING: Use special bonds = 0,1,1 with bond style fene (bond_fene.cpp:189)
Memory usage per processor = 18.891 Mbytes
Step sdpd_kin pTemp 
   76000 1.0209459e+09 9.979561e+08 
   76100 1.0305287e+09 1.0083426e+09 
   76200 1.0244695e+09 1.0022992e+09 
   76300 1.0305873e+09 1.0082251e+09 
   76400 1.0241751e+09 1.0016013e+09 
   76500 1.023584e+09 1.0009846e+09 
   76600 1.0293874e+09 1.0067198e+09 
   76700 1.0322416e+09 1.0090198e+09 
   76800 1.0296741e+09 1.0061579e+09 
   76900 1.0252102e+09 1.0019165e+09 
   77000 1.0258983e+09 1.0029681e+09 
Loop time of 671.994 on 6 procs for 1000 steps with 31755 atoms

Pair  time (%) = 605.101 (90.0455)
Bond  time (%) = 0.816849 (0.121556)
Neigh time (%) = 5.19221 (0.772657)
Comm  time (%) = 23.2545 (3.46052)
Outpt time (%) = 2.11831 (0.315227)
Other time (%) = 35.5118 (5.28453)

Nlocal:    5292.5 ave 5397 max 5139 min
Histogram: 1 0 1 0 0 1 0 0 1 2
Nghost:    7684.5 ave 8059 max 7506 min
Histogram: 3 0 0 1 0 1 0 0 0 1
Neighs:    302748 ave 313939 max 287390 min
Histogram: 1 0 1 0 1 0 0 1 0 2
FullNghs: 605497 ave 628529 max 576807 min
Histogram: 1 1 0 0 1 0 0 1 0 2

Total # of neighbors = 3632980
Ave neighs/atom = 114.407
Ave special neighs/atom = 5.09986
Neighbor list builds = 100
Dangerous builds = 100
velocity all zero linear
WARNING: Use special bonds = 0,1,1 with bond style fene (bond_fene.cpp:189)
Memory usage per processor = 18.891 Mbytes
Step sdpd_kin pTemp 
   77000 1.0258983e+09 1.0029681e+09 
   77100 1.0279737e+09 1.0048089e+09 
   77200 1.0300776e+09 1.0071987e+09 
   77300 1.0267327e+09 1.0044769e+09 
   77400 1.0331528e+09 1.0106825e+09 
   77500 1.0303237e+09 1.0081021e+09 
   77600 1.0361535e+09 1.0136272e+09 
   77700 1.0269439e+09 1.0043982e+09 
   77800 1.0329318e+09 1.0099564e+09 
   77900 1.0288925e+09 1.005624e+09 
   78000 1.0219772e+09 9.9925717e+08 
Loop time of 678.273 on 6 procs for 1000 steps with 31755 atoms

Pair  time (%) = 602.406 (88.8147)
Bond  time (%) = 0.818739 (0.120709)
Neigh time (%) = 5.19275 (0.765585)
Comm  time (%) = 32.8756 (4.84696)
Outpt time (%) = 2.11292 (0.311514)
Other time (%) = 34.8666 (5.14049)

Nlocal:    5292.5 ave 5425 max 5147 min
Histogram: 1 0 0 0 2 1 0 1 0 1
Nghost:    7813.33 ave 7963 max 7713 min
Histogram: 1 1 1 1 0 0 1 0 0 1
Neighs:    302855 ave 319566 max 284727 min
Histogram: 1 0 0 0 3 0 0 1 0 1
FullNghs: 605710 ave 638752 max 570869 min
Histogram: 1 0 0 0 3 0 0 1 0 1

Total # of neighbors = 3634258
Ave neighs/atom = 114.447
Ave special neighs/atom = 5.09986
Neighbor list builds = 100
Dangerous builds = 100
velocity all zero linear
WARNING: Use special bonds = 0,1,1 with bond style fene (bond_fene.cpp:189)
Memory usage per processor = 18.891 Mbytes
Step sdpd_kin pTemp 
   78000 1.0219771e+09 9.9925717e+08 
   78100 1.0263276e+09 1.0034855e+09 
   78200 1.0142106e+09 9.9129311e+08 
   78300 1.0215159e+09 9.9863166e+08 
   78400 1.0345979e+09 1.0110825e+09 
   78500 1.0298433e+09 1.006837e+09 
   78600 1.0273313e+09 1.0046081e+09 
   78700 1.026765e+09 1.0038012e+09 
   78800 1.0230646e+09 9.9953591e+08 
   78900 1.0216502e+09 9.9897617e+08 
   79000 1.0224349e+09 9.9965955e+08 
Loop time of 676.66 on 6 procs for 1000 steps with 31755 atoms

Pair  time (%) = 605.383 (89.4663)
Bond  time (%) = 0.826059 (0.122079)
Neigh time (%) = 5.21032 (0.770005)
Comm  time (%) = 28.7445 (4.248)
Outpt time (%) = 2.1139 (0.312401)
Other time (%) = 34.3826 (5.08122)

Nlocal:    5292.5 ave 5384 max 5142 min
Histogram: 2 0 0 0 0 0 0 0 1 3
Nghost:    7732.83 ave 7761 max 7689 min
Histogram: 2 0 0 0 0 0 0 1 0 3
Neighs:    301957 ave 311674 max 282799 min
Histogram: 1 0 1 0 0 0 0 1 0 3
FullNghs: 603914 ave 623584 max 566641 min
Histogram: 1 0 1 0 0 0 0 1 0 3

Total # of neighbors = 3623482
Ave neighs/atom = 114.107
Ave special neighs/atom = 5.09986
Neighbor list builds = 100
Dangerous builds = 100
velocity all zero linear
WARNING: Use special bonds = 0,1,1 with bond style fene (bond_fene.cpp:189)
Memory usage per processor = 18.891 Mbytes
Step sdpd_kin pTemp 
   79000 1.0224349e+09 9.9965955e+08 
   79100 1.0212612e+09 9.9844242e+08 
   79200 1.0299198e+09 1.0071274e+09 
   79300 1.0277674e+09 1.0054627e+09 
   79400 1.0278764e+09 1.0057418e+09 
   79500 1.0253098e+09 1.0039707e+09 
   79600 1.0250249e+09 1.0030267e+09 
   79700 1.0194059e+09 9.976748e+08 
   79800 1.0308619e+09 1.0093948e+09 
   79900 1.0274013e+09 1.0059218e+09 
   80000 1.0220375e+09 1.0000926e+09 
Loop time of 674.243 on 6 procs for 1000 steps with 31755 atoms

Pair  time (%) = 602.901 (89.4189)
Bond  time (%) = 0.832998 (0.123546)
Neigh time (%) = 5.20437 (0.771883)
Comm  time (%) = 27.9634 (4.14738)
Outpt time (%) = 2.14502 (0.318138)
Other time (%) = 35.1967 (5.22018)

Nlocal:    5292.5 ave 5406 max 5176 min
Histogram: 2 0 0 0 1 0 1 0 1 1
Nghost:    7708.17 ave 7788 max 7562 min
Histogram: 1 0 0 0 0 0 3 0 1 1
Neighs:    302546 ave 313930 max 292324 min
Histogram: 2 0 0 0 1 1 0 0 1 1
FullNghs: 605092 ave 626959 max 584542 min
Histogram: 2 0 0 0 1 1 0 0 1 1

Total # of neighbors = 3630554
Ave neighs/atom = 114.33
Ave special neighs/atom = 5.09986
Neighbor list builds = 100
Dangerous builds = 99
velocity all zero linear
WARNING: Use special bonds = 0,1,1 with bond style fene (bond_fene.cpp:189)
Memory usage per processor = 18.891 Mbytes
Step sdpd_kin pTemp 
   80000 1.0220375e+09 1.0000926e+09 
   80100 1.0190011e+09 9.9729918e+08 
   80200 1.0263813e+09 1.0050634e+09 
   80300 1.0279738e+09 1.0072202e+09 
   80400 1.0250039e+09 1.0040736e+09 
   80500 1.0233721e+09 1.0023324e+09 
   80600 1.0173111e+09 9.961194e+08 
   80700 1.0169293e+09 9.965237e+08 
   80800 1.0270206e+09 1.0062189e+09 
   80900 1.0256527e+09 1.0043306e+09 
   81000 1.0211192e+09 9.9989702e+08 
Loop time of 677.353 on 6 procs for 1000 steps with 31755 atoms

Pair  time (%) = 605.24 (89.3538)
Bond  time (%) = 0.828876 (0.12237)
Neigh time (%) = 5.21188 (0.769449)
Comm  time (%) = 29.0952 (4.29542)
Outpt time (%) = 2.1218 (0.313249)
Other time (%) = 34.8545 (5.14569)

Nlocal:    5292.5 ave 5430 max 5139 min
Histogram: 1 1 0 0 0 1 1 1 0 1
Nghost:    7683.5 ave 7874 max 7538 min
Histogram: 1 1 0 0 1 2 0 0 0 1
Neighs:    302666 ave 316819 max 290911 min
Histogram: 2 0 0 0 0 2 1 0 0 1
FullNghs: 605332 ave 634654 max 580963 min
Histogram: 2 0 0 0 0 2 1 0 0 1

Total # of neighbors = 3631994
Ave neighs/atom = 114.375
Ave special neighs/atom = 5.09986
Neighbor list builds = 100
Dangerous builds = 100
velocity all zero linear
WARNING: Use special bonds = 0,1,1 with bond style fene (bond_fene.cpp:189)
Memory usage per processor = 18.891 Mbytes
Step sdpd_kin pTemp 
   81000 1.0211192e+09 9.9989702e+08 
   81100 1.0209495e+09 9.9901642e+08 
   81200 1.0182471e+09 9.9632536e+08 
   81300 1.0299046e+09 1.0083104e+09 
   81400 1.0276766e+09 1.0064018e+09 
   81500 1.0224432e+09 1.0009941e+09 
   81600 1.0268244e+09 1.0049321e+09 
   81700 1.0256386e+09 1.0041671e+09 
   81800 1.0257312e+09 1.0039264e+09 
   81900 1.0324646e+09 1.0112323e+09 
   82000 1.0209292e+09 9.9956418e+08 
Loop time of 691.324 on 6 procs for 1000 steps with 31755 atoms

Pair  time (%) = 606.297 (87.7008)
Bond  time (%) = 0.809508 (0.117095)
Neigh time (%) = 5.19301 (0.751169)
Comm  time (%) = 41.1015 (5.94532)
Outpt time (%) = 2.22053 (0.3212)
Other time (%) = 35.7029 (5.16443)

Nlocal:    5292.5 ave 5489 max 5133 min
Histogram: 2 1 0 0 0 0 0 2 0 1
Nghost:    7721.5 ave 7809 max 7538 min
Histogram: 1 0 0 0 0 1 0 1 1 2
Neighs:    304289 ave 321121 max 287539 min
Histogram: 2 0 0 1 0 0 1 0 0 2
FullNghs: 608578 ave 643676 max 573263 min
Histogram: 2 0 0 1 0 0 1 0 0 2

Total # of neighbors = 3651466
Ave neighs/atom = 114.989
Ave special neighs/atom = 5.09986
Neighbor list builds = 100
Dangerous builds = 100
velocity all zero linear
WARNING: Use special bonds = 0,1,1 with bond style fene (bond_fene.cpp:189)
Memory usage per processor = 18.891 Mbytes
Step sdpd_kin pTemp 
   82000 1.0209292e+09 9.9956418e+08 
   82100 1.0251469e+09 1.0041066e+09 
   82200 1.0277733e+09 1.0066526e+09 
   82300 1.0218199e+09 1.0007667e+09 
   82400 1.0259463e+09 1.0042516e+09 
   82500 1.0237299e+09 1.0027071e+09 
   82600 1.0224833e+09 1.0016223e+09 
   82700 1.0223762e+09 1.0011461e+09 
   82800 1.0294239e+09 1.0076099e+09 
   82900 1.0254805e+09 1.0043585e+09 
   83000 1.0267324e+09 1.005477e+09 
Loop time of 672.232 on 6 procs for 1000 steps with 31755 atoms

Pair  time (%) = 606.216 (90.1796)
Bond  time (%) = 0.798596 (0.118798)
Neigh time (%) = 5.16467 (0.768288)
Comm  time (%) = 25.0468 (3.72592)
Outpt time (%) = 2.11784 (0.315046)
Other time (%) = 32.8881 (4.89238)

Nlocal:    5292.5 ave 5361 max 5227 min
Histogram: 1 0 1 0 1 1 1 0 0 1
Nghost:    7839.83 ave 8124 max 7591 min
Histogram: 1 0 0 2 0 2 0 0 0 1
Neighs:    304152 ave 309632 max 297439 min
Histogram: 1 0 0 0 2 1 0 0 0 2
FullNghs: 608305 ave 619723 max 597188 min
Histogram: 1 0 0 3 0 0 0 0 0 2

Total # of neighbors = 3649830
Ave neighs/atom = 114.937
Ave special neighs/atom = 5.09986
Neighbor list builds = 100
Dangerous builds = 100
velocity all zero linear
WARNING: Use special bonds = 0,1,1 with bond style fene (bond_fene.cpp:189)
Memory usage per processor = 18.891 Mbytes
Step sdpd_kin pTemp 
   83000 1.0267323e+09 1.005477e+09 
   83100 1.0233138e+09 1.0024036e+09 
   83200 1.0227762e+09 1.0018052e+09 
   83300 1.0296284e+09 1.0081266e+09 
   83400 1.0243891e+09 1.0034755e+09 
   83500 1.0213602e+09 1.0002684e+09 
   83600 1.0249628e+09 1.0039154e+09 
   83700 1.0340602e+09 1.0132551e+09 
   83800 1.0262441e+09 1.0053619e+09 
   83900 1.0250269e+09 1.0044978e+09 
   84000 1.0204752e+09 9.9978747e+08 
Loop time of 665.631 on 6 procs for 1000 steps with 31755 atoms

Pair  time (%) = 602.596 (90.53)
Bond  time (%) = 0.810929 (0.121829)
Neigh time (%) = 5.17719 (0.777786)
Comm  time (%) = 21.5893 (3.24343)
Outpt time (%) = 2.10093 (0.31563)
Other time (%) = 33.3572 (5.01136)

Nlocal:    5292.5 ave 5375 max 5213 min
Histogram: 1 0 1 1 1 0 0 0 1 1
Nghost:    7811.17 ave 7893 max 7702 min
Histogram: 1 0 0 1 0 1 1 1 0 1
Neighs:    302413 ave 313206 max 293065 min
Histogram: 1 1 0 1 1 0 0 1 0 1
FullNghs: 604827 ave 625772 max 586778 min
Histogram: 1 1 0 1 1 0 0 1 0 1

Total # of neighbors = 3628960
Ave neighs/atom = 114.28
Ave special neighs/atom = 5.09986
Neighbor list builds = 100
Dangerous builds = 100
velocity all zero linear
WARNING: Use special bonds = 0,1,1 with bond style fene (bond_fene.cpp:189)
Memory usage per processor = 18.891 Mbytes
Step sdpd_kin pTemp 
   84000 1.0204751e+09 9.9978747e+08 
   84100 1.0143929e+09 9.9326567e+08 
   84200 1.0288233e+09 1.0075327e+09 
   84300 1.0195675e+09 9.9862112e+08 
   84400 1.0255816e+09 1.0044866e+09 
   84500 1.029581e+09 1.0088941e+09 
   84600 1.0195922e+09 9.9850832e+08 
   84700 1.0241147e+09 1.0025121e+09 
   84800 1.0165963e+09 9.9491921e+08 
   84900 1.0250109e+09 1.0041509e+09 
   85000 1.0244414e+09 1.0034527e+09 
Loop time of 675.188 on 6 procs for 1000 steps with 31755 atoms

Pair  time (%) = 602.086 (89.1731)
Bond  time (%) = 0.801864 (0.118762)
Neigh time (%) = 5.15707 (0.763797)
Comm  time (%) = 30.75 (4.55429)
Outpt time (%) = 2.1061 (0.311928)
Other time (%) = 34.287 (5.07813)

Nlocal:    5292.5 ave 5433 max 5075 min
Histogram: 1 0 0 0 1 1 0 1 0 2
Nghost:    7845.5 ave 8050 max 7684 min
Histogram: 1 0 2 0 0 1 1 0 0 1
Neighs:    302504 ave 321077 max 283108 min
Histogram: 1 0 1 0 1 1 0 0 1 1
FullNghs: 605008 ave 640779 max 565814 min
Histogram: 1 0 0 1 1 1 0 0 1 1

Total # of neighbors = 3630050
Ave neighs/atom = 114.314
Ave special neighs/atom = 5.09986
Neighbor list builds = 100
Dangerous builds = 100
velocity all zero linear
WARNING: Use special bonds = 0,1,1 with bond style fene (bond_fene.cpp:189)
Memory usage per processor = 18.891 Mbytes
Step sdpd_kin pTemp 
   85000 1.0244414e+09 1.0034527e+09 
   85100 1.0267492e+09 1.0053134e+09 
   85200 1.0281193e+09 1.006712e+09 
   85300 1.0159254e+09 9.9433851e+08 
   85400 1.0201073e+09 9.9817651e+08 
   85500 1.023497e+09 1.0021421e+09 
   85600 1.0236803e+09 1.0020669e+09 
   85700 1.0210323e+09 9.9920849e+08 
   85800 1.025541e+09 1.0039794e+09 
   85900 1.0242636e+09 1.0028117e+09 
   86000 1.0244445e+09 1.0024455e+09 
Loop time of 687.133 on 6 procs for 1000 steps with 31755 atoms

Pair  time (%) = 602.041 (87.6163)
Bond  time (%) = 0.781179 (0.113687)
Neigh time (%) = 5.13964 (0.747982)
Comm  time (%) = 42.127 (6.13084)
Outpt time (%) = 2.11046 (0.30714)
Other time (%) = 34.9343 (5.08406)

Nlocal:    5292.5 ave 5446 max 5182 min
Histogram: 3 0 0 0 0 0 1 1 0 1
Nghost:    7746.33 ave 7853 max 7579 min
Histogram: 1 0 0 1 0 0 1 1 0 2
Neighs:    302568 ave 319163 max 288933 min
Histogram: 1 1 1 0 0 1 1 0 0 1
FullNghs: 605137 ave 639069 max 576357 min
Histogram: 1 1 1 0 0 0 1 1 0 1

Total # of neighbors = 3630822
Ave neighs/atom = 114.339
Ave special neighs/atom = 5.09986
Neighbor list builds = 100
Dangerous builds = 100
velocity all zero linear
WARNING: Use special bonds = 0,1,1 with bond style fene (bond_fene.cpp:189)
Memory usage per processor = 18.1281 Mbytes
Step sdpd_kin pTemp 
   86000 1.0244444e+09 1.0024455e+09 
   86100 1.0245692e+09 1.0033557e+09 
   86200 1.0284011e+09 1.0068814e+09 
   86300 1.0224378e+09 1.0012512e+09 
   86400 1.0237637e+09 1.0022392e+09 
   86500 1.0240204e+09 1.0026815e+09 
   86600 1.0209788e+09 9.9929037e+08 
   86700 1.0214309e+09 1.0001515e+09 
   86800 1.0256279e+09 1.004364e+09 
   86900 1.0172905e+09 9.9568587e+08 
   87000 1.0180972e+09 9.969877e+08 
Loop time of 668.524 on 6 procs for 1000 steps with 31755 atoms

Pair  time (%) = 602.436 (90.1144)
Bond  time (%) = 0.786977 (0.117719)
Neigh time (%) = 5.159 (0.7717)
Comm  time (%) = 24.0221 (3.5933)
Outpt time (%) = 2.11011 (0.315637)
Other time (%) = 34.0094 (5.08723)

Nlocal:    5292.5 ave 5407 max 5151 min
Histogram: 1 1 0 0 0 1 1 0 0 2
Nghost:    7830.33 ave 7966 max 7648 min
Histogram: 1 1 0 0 0 0 2 0 0 2
Neighs:    302243 ave 312114 max 286967 min
Histogram: 1 0 0 1 0 1 0 1 0 2
FullNghs: 604486 ave 623070 max 575137 min
Histogram: 1 0 0 1 0 0 1 0 1 2

Total # of neighbors = 3626918
Ave neighs/atom = 114.216
Ave special neighs/atom = 5.09986
Neighbor list builds = 100
Dangerous builds = 100
velocity all zero linear
WARNING: Use special bonds = 0,1,1 with bond style fene (bond_fene.cpp:189)
Memory usage per processor = 18.1281 Mbytes
Step sdpd_kin pTemp 
   87000 1.0180972e+09 9.969877e+08 
   87100 1.0174451e+09 9.9651847e+08 
   87200 1.0214165e+09 1.0002953e+09 
   87300 1.0164595e+09 9.9520396e+08 
   87400 1.0244943e+09 1.0029703e+09 
   87500 1.0196092e+09 9.9821974e+08 
   87600 1.0259254e+09 1.0044236e+09 
   87700 1.0214277e+09 9.9974949e+08 
   87800 1.0257453e+09 1.0035715e+09 
   87900 1.0179743e+09 9.9599509e+08 
   88000 1.0285911e+09 1.005814e+09 
Loop time of 679.267 on 6 procs for 1000 steps with 31755 atoms

Pair  time (%) = 601.156 (88.5007)
Bond  time (%) = 0.783298 (0.115315)
Neigh time (%) = 5.15739 (0.759258)
Comm  time (%) = 34.3963 (5.06374)
Outpt time (%) = 2.12005 (0.312109)
Other time (%) = 35.6539 (5.24888)

Nlocal:    5292.5 ave 5383 max 5170 min
Histogram: 1 0 1 0 1 0 0 1 0 2
Nghost:    7863.83 ave 7954 max 7708 min
Histogram: 1 0 0 1 1 0 0 0 0 3
Neighs:    302315 ave 315680 max 288408 min
Histogram: 1 0 0 1 1 1 1 0 0 1
FullNghs: 604630 ave 631557 max 577936 min
Histogram: 1 0 0 2 0 1 1 0 0 1

Total # of neighbors = 3627778
Ave neighs/atom = 114.243
Ave special neighs/atom = 5.09986
Neighbor list builds = 100
Dangerous builds = 100
velocity all zero linear
WARNING: Use special bonds = 0,1,1 with bond style fene (bond_fene.cpp:189)
Memory usage per processor = 18.891 Mbytes
Step sdpd_kin pTemp 
   88000 1.0285911e+09 1.005814e+09 
   88100 1.0165792e+09 9.9417963e+08 
   88200 1.0220184e+09 9.9916428e+08 
   88300 1.0244648e+09 1.0016183e+09 
   88400 1.0263051e+09 1.0029127e+09 
   88500 1.0303491e+09 1.0073088e+09 
   88600 1.0198021e+09 9.9693187e+08 
   88700 1.0250164e+09 1.0022555e+09 
   88800 1.0205569e+09 9.9780251e+08 
   88900 1.0312169e+09 1.0088557e+09 
   89000 1.028349e+09 1.0055029e+09 
Loop time of 680.066 on 6 procs for 1000 steps with 31755 atoms

Pair  time (%) = 601.202 (88.4035)
Bond  time (%) = 0.795124 (0.116919)
Neigh time (%) = 5.16689 (0.759763)
Comm  time (%) = 34.8576 (5.12562)
Outpt time (%) = 2.09374 (0.307873)
Other time (%) = 35.9505 (5.28632)

Nlocal:    5292.5 ave 5440 max 5110 min
Histogram: 1 0 1 1 0 0 0 1 0 2
Nghost:    7782.67 ave 7950 max 7568 min
Histogram: 1 0 1 0 0 0 1 2 0 1
Neighs:    302703 ave 317284 max 286371 min
Histogram: 1 1 1 0 0 0 0 0 2 1
FullNghs: 605406 ave 634122 max 573046 min
Histogram: 1 1 0 1 0 0 0 0 2 1

Total # of neighbors = 3632434
Ave neighs/atom = 114.389
Ave special neighs/atom = 5.09986
Neighbor list builds = 100
Dangerous builds = 100
velocity all zero linear
WARNING: Use special bonds = 0,1,1 with bond style fene (bond_fene.cpp:189)
Memory usage per processor = 18.891 Mbytes
Step sdpd_kin pTemp 
   89000 1.0283488e+09 1.0055029e+09 
   89100 1.0202082e+09 9.9719704e+08 
   89200 1.0294025e+09 1.0064866e+09 
   89300 1.0225646e+09 9.990275e+08 
   89400 1.0322177e+09 1.0088609e+09 
   89500 1.0273089e+09 1.0040737e+09 
   89600 1.0214354e+09 9.9813026e+08 
   89700 1.0187532e+09  9.95119e+08 
   89800 1.0303625e+09 1.0073627e+09 
   89900 1.0255037e+09 1.0023162e+09 
   90000 1.0227319e+09 9.9930299e+08 
Loop time of 686.893 on 6 procs for 1000 steps with 31755 atoms

Pair  time (%) = 602.274 (87.6808)
Bond  time (%) = 0.778196 (0.113292)
Neigh time (%) = 5.16659 (0.752167)
Comm  time (%) = 42.4501 (6.18002)
Outpt time (%) = 2.10969 (0.307135)
Other time (%) = 34.1149 (4.96656)

Nlocal:    5292.5 ave 5535 max 5096 min
Histogram: 1 1 1 0 0 0 2 0 0 1
Nghost:    7737 ave 7866 max 7658 min
Histogram: 2 1 0 1 0 0 0 1 0 1
Neighs:    302613 ave 328384 max 278602 min
Histogram: 1 0 1 1 0 0 1 1 0 1
FullNghs: 605226 ave 658038 max 556598 min
Histogram: 1 0 1 1 0 0 1 1 0 1

Total # of neighbors = 3631358
Ave neighs/atom = 114.355
Ave special neighs/atom = 5.09986
Neighbor list builds = 100
Dangerous builds = 99
velocity all zero linear
WARNING: Use special bonds = 0,1,1 with bond style fene (bond_fene.cpp:189)
Memory usage per processor = 18.891 Mbytes
Step sdpd_kin pTemp 
   90000 1.0227318e+09 9.9930299e+08 
   90100 1.0235229e+09 1.0005541e+09 
   90200 1.0304849e+09 1.0065607e+09 
   90300 1.0302814e+09 1.0064942e+09 
   90400 1.0301732e+09 1.0070436e+09 
   90500 1.0218311e+09 9.9854059e+08 
   90600 1.0233792e+09 1.0000864e+09 
   90700 1.0345458e+09 1.0113208e+09 
   90800 1.025804e+09 1.0028809e+09 
   90900 1.0219333e+09 9.9897123e+08 
   91000 1.0291727e+09 1.0061033e+09 
Loop time of 695.886 on 6 procs for 1000 steps with 31755 atoms

Pair  time (%) = 602.177 (86.534)
Bond  time (%) = 0.779878 (0.11207)
Neigh time (%) = 5.14308 (0.73907)
Comm  time (%) = 52.005 (7.47322)
Outpt time (%) = 2.08464 (0.299566)
Other time (%) = 33.6955 (4.8421)

Nlocal:    5292.5 ave 5482 max 5172 min
Histogram: 2 0 1 0 1 0 1 0 0 1
Nghost:    7692.67 ave 7859 max 7456 min
Histogram: 1 0 0 1 0 0 2 0 1 1
Neighs:    301896 ave 321667 max 290884 min
Histogram: 2 0 1 1 0 1 0 0 0 1
FullNghs: 603791 ave 642932 max 581919 min
Histogram: 2 1 0 1 0 0 1 0 0 1

Total # of neighbors = 3622748
Ave neighs/atom = 114.084
Ave special neighs/atom = 5.09986
Neighbor list builds = 100
Dangerous builds = 100
velocity all zero linear
WARNING: Use special bonds = 0,1,1 with bond style fene (bond_fene.cpp:189)
Memory usage per processor = 18.891 Mbytes
Step sdpd_kin pTemp 
   91000 1.0291727e+09 1.0061033e+09 
   91100 1.0221299e+09 9.9933123e+08 
   91200 1.0231916e+09 1.0008648e+09 
   91300 1.0235187e+09 1.0006047e+09 
   91400 1.029536e+09 1.0070208e+09 
   91500 1.0328445e+09 1.010225e+09 
   91600 1.0293241e+09 1.0066476e+09 
   91700 1.0143613e+09 9.9171101e+08 
   91800 1.0212663e+09 9.9822437e+08 
   91900 1.0194759e+09 9.9674075e+08 
   92000 1.028769e+09 1.0054306e+09 
Loop time of 689.442 on 6 procs for 1000 steps with 31755 atoms

Pair  time (%) = 601.805 (87.2887)
Bond  time (%) = 0.779678 (0.113088)
Neigh time (%) = 5.13608 (0.744962)
Comm  time (%) = 47.1503 (6.83891)
Outpt time (%) = 2.1266 (0.308452)
Other time (%) = 32.4446 (4.70592)

Nlocal:    5292.5 ave 5439 max 5175 min
Histogram: 2 1 0 0 0 1 0 0 0 2
Nghost:    7754.33 ave 7908 max 7611 min
Histogram: 1 0 1 1 0 1 0 0 1 1
Neighs:    302304 ave 319910 max 289546 min
Histogram: 2 1 0 0 1 0 0 0 0 2
FullNghs: 604608 ave 638201 max 577266 min
Histogram: 1 2 0 0 1 0 0 0 0 2

Total # of neighbors = 3627646
Ave neighs/atom = 114.239
Ave special neighs/atom = 5.09986
Neighbor list builds = 100
Dangerous builds = 100
velocity all zero linear
WARNING: Use special bonds = 0,1,1 with bond style fene (bond_fene.cpp:189)
Memory usage per processor = 18.1281 Mbytes
Step sdpd_kin pTemp 
   92000 1.028769e+09 1.0054306e+09 
   92100 1.0234497e+09 1.0001226e+09 
   92200 1.0268061e+09 1.0043921e+09 
   92300 1.0244768e+09 1.0019905e+09 
   92400 1.0203467e+09 9.9856132e+08 
   92500 1.0250056e+09 1.0031784e+09 
   92600 1.0216959e+09 9.9976729e+08 
   92700 1.0265136e+09 1.004969e+09 
   92800 1.030674e+09 1.009326e+09 
   92900 1.0205721e+09 9.9933941e+08 
   93000 1.0258932e+09 1.0045513e+09 
Loop time of 676.582 on 6 procs for 1000 steps with 31755 atoms

Pair  time (%) = 600.361 (88.7344)
Bond  time (%) = 0.782787 (0.115697)
Neigh time (%) = 5.13543 (0.759026)
Comm  time (%) = 35.1833 (5.20015)
Outpt time (%) = 2.10381 (0.310946)
Other time (%) = 33.0158 (4.8798)

Nlocal:    5292.5 ave 5483 max 5169 min
Histogram: 2 0 1 1 0 0 0 1 0 1
Nghost:    7692.33 ave 7920 max 7494 min
Histogram: 1 0 1 1 0 1 0 1 0 1
Neighs:    301130 ave 321230 max 288290 min
Histogram: 2 1 0 1 0 0 0 1 0 1
FullNghs: 602260 ave 641541 max 576105 min
Histogram: 2 0 1 1 0 0 0 1 0 1

Total # of neighbors = 3613560
Ave neighs/atom = 113.795
Ave special neighs/atom = 5.09986
Neighbor list builds = 100
Dangerous builds = 100
velocity all zero linear
WARNING: Use special bonds = 0,1,1 with bond style fene (bond_fene.cpp:189)
Memory usage per processor = 18.891 Mbytes
Step sdpd_kin pTemp 
   93000 1.0258932e+09 1.0045513e+09 
   93100 1.0324053e+09 1.0112277e+09 
   93200 1.0265672e+09 1.0056329e+09 
   93300 1.0149591e+09 9.9377997e+08 
   93400 1.0185633e+09 9.9712135e+08 
   93500 1.0271254e+09 1.0055033e+09 
   93600 1.0266397e+09 1.0047126e+09 
   93700 1.0205694e+09 9.9869544e+08 
   93800 1.0238258e+09 1.0017274e+09 
   93900 1.0273508e+09 1.0047812e+09 
   94000 1.0234619e+09 1.0015067e+09 
Loop time of 669.074 on 6 procs for 1000 steps with 31755 atoms

Pair  time (%) = 598.567 (89.4619)
Bond  time (%) = 0.779727 (0.116538)
Neigh time (%) = 5.14687 (0.769253)
Comm  time (%) = 28.2379 (4.22044)
Outpt time (%) = 2.11364 (0.315905)
Other time (%) = 34.2295 (5.11595)

Nlocal:    5292.5 ave 5368 max 5234 min
Histogram: 1 2 0 0 0 1 0 1 0 1
Nghost:    7770.17 ave 7892 max 7580 min
Histogram: 1 0 0 0 1 0 2 0 0 2
Neighs:    301786 ave 310759 max 290866 min
Histogram: 1 1 0 0 1 0 1 0 0 2
FullNghs: 603572 ave 622119 max 583100 min
Histogram: 1 1 0 0 1 0 1 0 0 2

Total # of neighbors = 3621434
Ave neighs/atom = 114.043
Ave special neighs/atom = 5.09986
Neighbor list builds = 100
Dangerous builds = 100
velocity all zero linear
WARNING: Use special bonds = 0,1,1 with bond style fene (bond_fene.cpp:189)
Memory usage per processor = 18.891 Mbytes
Step sdpd_kin pTemp 
   94000 1.0234619e+09 1.0015067e+09 
   94100 1.029325e+09 1.0066843e+09 
   94200 1.0310901e+09 1.0082603e+09 
   94300 1.0225379e+09 1.0003473e+09 
   94400 1.0357787e+09 1.0125652e+09 
   94500 1.027603e+09 1.0052867e+09 
   94600 1.0137341e+09 9.9127734e+08 
   94700 1.0234636e+09 1.0005375e+09 
   94800 1.0300452e+09 1.0074474e+09 
   94900 1.0289339e+09 1.0059684e+09 
   95000 1.0229602e+09 9.9994673e+08 
Loop time of 672.962 on 6 procs for 1000 steps with 31755 atoms

Pair  time (%) = 602.876 (89.5854)
Bond  time (%) = 0.784086 (0.116513)
Neigh time (%) = 5.15809 (0.766476)
Comm  time (%) = 26.8966 (3.99675)
Outpt time (%) = 2.10533 (0.312846)
Other time (%) = 35.1421 (5.22201)

Nlocal:    5292.5 ave 5400 max 5193 min
Histogram: 1 0 2 0 0 0 1 1 0 1
Nghost:    7766.83 ave 7949 max 7613 min
Histogram: 1 1 0 2 0 0 0 0 1 1
Neighs:    302967 ave 313251 max 293132 min
Histogram: 1 1 1 0 0 0 0 2 0 1
FullNghs: 605933 ave 625526 max 585395 min
Histogram: 1 0 1 1 0 0 0 2 0 1

Total # of neighbors = 3635600
Ave neighs/atom = 114.489
Ave special neighs/atom = 5.09986
Neighbor list builds = 100
Dangerous builds = 100
velocity all zero linear
WARNING: Use special bonds = 0,1,1 with bond style fene (bond_fene.cpp:189)
Memory usage per processor = 18.891 Mbytes
Step sdpd_kin pTemp 
   95000 1.0229602e+09 9.9994673e+08 
   95100 1.0222187e+09 9.9978643e+08 
   95200 1.0232972e+09 1.0004957e+09 
   95300 1.031642e+09 1.0089451e+09 
   95400 1.0349805e+09 1.0120218e+09 
   95500 1.0244284e+09 1.0016011e+09 
   95600 1.0257572e+09 1.0029276e+09 
   95700 1.0254433e+09 1.002118e+09 
   95800 1.018734e+09 9.9574327e+08 
   95900 1.0222259e+09 9.9894997e+08 
   96000 1.0229674e+09 1.0006038e+09 
Loop time of 671.731 on 6 procs for 1000 steps with 31755 atoms

Pair  time (%) = 603.974 (89.9131)
Bond  time (%) = 0.781474 (0.116337)
Neigh time (%) = 5.16845 (0.769423)
Comm  time (%) = 25.4364 (3.78669)
Outpt time (%) = 2.11599 (0.315005)
Other time (%) = 34.2542 (5.0994)

Nlocal:    5292.5 ave 5428 max 5221 min
Histogram: 2 1 1 0 0 1 0 0 0 1
Nghost:    7644.17 ave 7775 max 7521 min
Histogram: 1 0 1 1 1 0 0 0 0 2
Neighs:    303049 ave 311736 max 296481 min
Histogram: 1 1 1 1 0 0 0 0 0 2
FullNghs: 606098 ave 625001 max 593003 min
Histogram: 2 1 1 0 0 0 0 0 1 1

Total # of neighbors = 3636590
Ave neighs/atom = 114.52
Ave special neighs/atom = 5.09986
Neighbor list builds = 100
Dangerous builds = 100
velocity all zero linear
WARNING: Use special bonds = 0,1,1 with bond style fene (bond_fene.cpp:189)
Memory usage per processor = 18.891 Mbytes
Step sdpd_kin pTemp 
   96000 1.0229674e+09 1.0006038e+09 
   96100 1.0234606e+09 1.0008106e+09 
   96200 1.0275177e+09 1.0048143e+09 
   96300 1.0199551e+09 9.9752919e+08 
   96400 1.0183839e+09 9.958089e+08 
   96500 1.0151456e+09 9.9256432e+08 
   96600 1.0243677e+09 1.0018479e+09 
   96700 1.0253317e+09 1.0030674e+09 
   96800 1.0244681e+09 1.0020649e+09 
   96900 1.0240582e+09 1.0019274e+09 
   97000 1.0272827e+09 1.0054171e+09 
Loop time of 667.779 on 6 procs for 1000 steps with 31755 atoms

Pair  time (%) = 602.614 (90.2415)
Bond  time (%) = 0.792807 (0.118723)
Neigh time (%) = 5.1729 (0.774641)
Comm  time (%) = 23.3711 (3.49983)
Outpt time (%) = 2.1101 (0.315988)
Other time (%) = 33.7185 (5.04935)

Nlocal:    5292.5 ave 5439 max 5130 min
Histogram: 1 0 0 0 1 2 1 0 0 1
Nghost:    7782.67 ave 7939 max 7663 min
Histogram: 2 0 0 1 0 1 1 0 0 1
Neighs:    301783 ave 312782 max 290485 min
Histogram: 1 0 0 1 1 1 1 0 0 1
FullNghs: 603567 ave 625414 max 580859 min
Histogram: 1 0 0 0 2 1 1 0 0 1

Total # of neighbors = 3621400
Ave neighs/atom = 114.042
Ave special neighs/atom = 5.09986
Neighbor list builds = 100
Dangerous builds = 100
velocity all zero linear
WARNING: Use special bonds = 0,1,1 with bond style fene (bond_fene.cpp:189)
Memory usage per processor = 18.891 Mbytes
Step sdpd_kin pTemp 
   97000 1.0272827e+09 1.0054171e+09 
   97100 1.026164e+09 1.0041707e+09 
   97200 1.0272805e+09 1.0050146e+09 
   97300 1.0285256e+09 1.0060933e+09 
   97400 1.0223094e+09 9.9999166e+08 
   97500 1.028294e+09 1.0060442e+09 
   97600 1.0230122e+09 1.0003761e+09 
   97700 1.026696e+09 1.004287e+09 
   97800 1.0281968e+09 1.0060814e+09 
   97900 1.0279318e+09 1.0055126e+09 
   98000 1.013787e+09 9.9130648e+08 
Loop time of 670.869 on 6 procs for 1000 steps with 31755 atoms

Pair  time (%) = 601.657 (89.6833)
Bond  time (%) = 0.784669 (0.116963)
Neigh time (%) = 5.15183 (0.767934)
Comm  time (%) = 28.2681 (4.21365)
Outpt time (%) = 2.11344 (0.31503)
Other time (%) = 32.8937 (4.90314)

Nlocal:    5292.5 ave 5481 max 5171 min
Histogram: 1 0 2 1 0 1 0 0 0 1
Nghost:    7690.33 ave 7851 max 7368 min
Histogram: 1 0 0 0 0 0 2 0 2 1
Neighs:    303422 ave 320506 max 295337 min
Histogram: 3 0 0 1 1 0 0 0 0 1
FullNghs: 606844 ave 642068 max 590978 min
Histogram: 3 0 1 0 1 0 0 0 0 1

Total # of neighbors = 3641062
Ave neighs/atom = 114.661
Ave special neighs/atom = 5.09986
Neighbor list builds = 100
Dangerous builds = 100
velocity all zero linear
WARNING: Use special bonds = 0,1,1 with bond style fene (bond_fene.cpp:189)
Memory usage per processor = 18.891 Mbytes
Step sdpd_kin pTemp 
   98000 1.0137869e+09 9.9130648e+08 
   98100 1.0260556e+09 1.0034575e+09 
   98200 1.0241102e+09 1.0015933e+09 
   98300 1.020388e+09 9.9736893e+08 
   98400 1.0201526e+09 9.9743965e+08 
   98500 1.021468e+09 9.9847694e+08 
   98600 1.0218973e+09 9.994153e+08 
   98700 1.0315532e+09 1.0089903e+09 
   98800  1.02523e+09 1.0020047e+09 
   98900 1.0230758e+09 9.9943909e+08 
   99000 1.0261122e+09 1.0027701e+09 
Loop time of 678.373 on 6 procs for 1000 steps with 31755 atoms

Pair  time (%) = 604.979 (89.181)
Bond  time (%) = 0.779808 (0.114953)
Neigh time (%) = 5.15684 (0.760178)
Comm  time (%) = 33.2732 (4.90486)
Outpt time (%) = 2.11021 (0.31107)
Other time (%) = 32.073 (4.72794)

Nlocal:    5292.5 ave 5433 max 5075 min
Histogram: 1 0 0 0 0 1 2 1 0 1
Nghost:    7729.33 ave 7890 max 7483 min
Histogram: 1 0 0 0 1 1 0 1 1 1
Neighs:    303564 ave 320082 max 282572 min
Histogram: 1 0 0 0 1 1 2 0 0 1
FullNghs: 607129 ave 639677 max 564614 min
Histogram: 1 0 0 0 0 1 3 0 0 1

Total # of neighbors = 3642772
Ave neighs/atom = 114.715
Ave special neighs/atom = 5.09986
Neighbor list builds = 100
Dangerous builds = 100
velocity all zero linear
WARNING: Use special bonds = 0,1,1 with bond style fene (bond_fene.cpp:189)
Memory usage per processor = 18.891 Mbytes
Step sdpd_kin pTemp 
   99000 1.026112e+09 1.0027701e+09 
   99100 1.0241599e+09 1.0003701e+09 
   99200 1.0202987e+09 9.9730254e+08 
   99300 1.0285363e+09 1.005441e+09 
   99400 1.0183996e+09 9.954296e+08 
   99500 1.0313108e+09 1.0085801e+09 
   99600 1.0250605e+09 1.0027875e+09 
   99700 1.0257643e+09 1.0032728e+09 
   99800 1.0213704e+09 9.9905115e+08 
   99900 1.0125642e+09 9.9036091e+08 
  100000 1.0329415e+09 1.0109046e+09 
Loop time of 672.272 on 6 procs for 1000 steps with 31755 atoms

Pair  time (%) = 604.88 (89.9755)
Bond  time (%) = 0.784929 (0.116758)
Neigh time (%) = 5.15 (0.76606)
Comm  time (%) = 26.7266 (3.97557)
Outpt time (%) = 2.11461 (0.314546)
Other time (%) = 32.6155 (4.85153)

Nlocal:    5292.5 ave 5454 max 5181 min
Histogram: 1 1 1 0 0 2 0 0 0 1
Nghost:    7760.5 ave 7958 max 7579 min
Histogram: 2 0 0 1 0 0 1 1 0 1
Neighs:    303043 ave 313804 max 292378 min
Histogram: 1 1 0 1 0 0 1 0 1 1
FullNghs: 606085 ave 630080 max 583067 min
Histogram: 1 1 0 1 0 0 1 0 1 1

Total # of neighbors = 3636512
Ave neighs/atom = 114.518
Ave special neighs/atom = 5.09986
Neighbor list builds = 100
Dangerous builds = 99
velocity all zero linear
WARNING: Use special bonds = 0,1,1 with bond style fene (bond_fene.cpp:189)
Memory usage per processor = 18.891 Mbytes
Step sdpd_kin pTemp 
  100000 1.0329412e+09 1.0109046e+09 
  100100 1.0341734e+09 1.011461e+09 
  100200 1.0271662e+09  1.00436e+09 
  100300 1.0338501e+09 1.0115127e+09 
  100400 1.0221366e+09 9.9913813e+08 
  100500 1.0279478e+09 1.0055537e+09 
  100600 1.0303723e+09 1.0081844e+09 
  100700 1.0238937e+09 1.0020784e+09 
  100800 1.0237633e+09 1.0018496e+09 
  100900 1.025879e+09 1.0036974e+09 
  101000 1.0320955e+09 1.0095995e+09 
Loop time of 672.263 on 6 procs for 1000 steps with 31755 atoms

Pair  time (%) = 600.64 (89.3461)
Bond  time (%) = 0.775863 (0.115411)
Neigh time (%) = 5.13466 (0.763788)
Comm  time (%) = 30.8903 (4.59498)
Outpt time (%) = 2.09626 (0.311821)
Other time (%) = 32.7254 (4.86795)

Nlocal:    5292.5 ave 5439 max 5158 min
Histogram: 1 0 0 3 0 0 0 1 0 1
Nghost:    7810.17 ave 7918 max 7711 min
Histogram: 2 0 0 1 0 0 1 0 1 1
Neighs:    302978 ave 318217 max 290270 min
Histogram: 1 0 1 2 0 0 0 1 0 1
FullNghs: 605956 ave 637272 max 580248 min
Histogram: 1 0 1 2 0 0 0 1 0 1

Total # of neighbors = 3635738
Ave neighs/atom = 114.493
Ave special neighs/atom = 5.09986
Neighbor list builds = 100
Dangerous builds = 100
velocity all zero linear
WARNING: Use special bonds = 0,1,1 with bond style fene (bond_fene.cpp:189)
Memory usage per processor = 18.891 Mbytes
Step sdpd_kin pTemp 
  101000 1.0320954e+09 1.0095995e+09 
  101100 1.0294161e+09 1.0071387e+09 
  101200 1.0322767e+09 1.0101644e+09 
  101300 1.0337499e+09 1.0114116e+09 
  101400 1.0231556e+09 1.0007249e+09 
  101500 1.0264222e+09 1.004379e+09 
  101600 1.0236266e+09 1.0016867e+09 
  101700 1.0204402e+09 9.9850847e+08 
  101800 1.0297176e+09 1.0078716e+09 
  101900 1.024903e+09 1.0026354e+09 
  102000 1.0304349e+09  1.00789e+09 
Loop time of 672.961 on 6 procs for 1000 steps with 31755 atoms

Pair  time (%) = 601.748 (89.4179)
Bond  time (%) = 0.78952 (0.11732)
Neigh time (%) = 5.15321 (0.765752)
Comm  time (%) = 26.9936 (4.01117)
Outpt time (%) = 2.09824 (0.311791)
Other time (%) = 36.1787 (5.37605)

Nlocal:    5292.5 ave 5469 max 5203 min
Histogram: 1 1 1 2 0 0 0 0 0 1
Nghost:    7830 ave 8029 max 7639 min
Histogram: 2 0 0 0 0 2 0 0 1 1
Neighs:    301652 ave 316089 max 293728 min
Histogram: 1 2 0 1 1 0 0 0 0 1
FullNghs: 603305 ave 633347 max 588147 min
Histogram: 1 2 0 1 1 0 0 0 0 1

Total # of neighbors = 3619830
Ave neighs/atom = 113.992
Ave special neighs/atom = 5.09986
Neighbor list builds = 100
Dangerous builds = 100
velocity all zero linear
WARNING: Use special bonds = 0,1,1 with bond style fene (bond_fene.cpp:189)
Memory usage per processor = 18.891 Mbytes
Step sdpd_kin pTemp 
  102000 1.0304349e+09  1.00789e+09 
  102100 1.0381815e+09 1.015965e+09 
  102200 1.0256631e+09 1.0036721e+09 
  102300 1.0303486e+09 1.0085236e+09 
  102400 1.0311612e+09 1.0092189e+09 
  102500 1.026752e+09 1.0046143e+09 
  102600 1.0333479e+09 1.010909e+09 
  102700 1.0273719e+09 1.0049685e+09 
  102800 1.0336418e+09 1.0110039e+09 
  102900 1.0283805e+09 1.0061865e+09 
  103000 1.0246185e+09 1.002588e+09 
Loop time of 661.183 on 6 procs for 1000 steps with 31755 atoms

Pair  time (%) = 600.457 (90.8155)
Bond  time (%) = 0.799744 (0.120957)
Neigh time (%) = 5.17305 (0.782392)
Comm  time (%) = 18.1626 (2.74698)
Outpt time (%) = 2.09365 (0.316652)
Other time (%) = 34.4972 (5.21749)

Nlocal:    5292.5 ave 5379 max 5220 min
Histogram: 2 0 0 0 2 0 0 0 1 1
Nghost:    7747.33 ave 7866 max 7512 min
Histogram: 1 0 0 0 0 0 2 0 2 1
Neighs:    302276 ave 310156 max 293151 min
Histogram: 1 0 0 1 1 0 1 0 1 1
FullNghs: 604551 ave 621285 max 585646 min
Histogram: 1 0 1 0 0 2 0 0 1 1

Total # of neighbors = 3627308
Ave neighs/atom = 114.228
Ave special neighs/atom = 5.09986
Neighbor list builds = 100
Dangerous builds = 100
velocity all zero linear
WARNING: Use special bonds = 0,1,1 with bond style fene (bond_fene.cpp:189)
Memory usage per processor = 18.891 Mbytes
Step sdpd_kin pTemp 
  103000 1.0246184e+09 1.002588e+09 
  103100 1.0259623e+09 1.0033936e+09 
  103200 1.0239816e+09 1.0015641e+09 
  103300 1.0240376e+09 1.0013721e+09 
  103400 1.0211437e+09 9.9911423e+08 
  103500 1.0303206e+09 1.0082626e+09 
  103600 1.022712e+09 1.0010806e+09 
  103700 1.0294181e+09 1.0080373e+09 
  103800 1.021112e+09 9.9955512e+08 
  103900 1.0223856e+09 1.0012341e+09 
  104000 1.0292645e+09 1.008028e+09 
Loop time of 669.605 on 6 procs for 1000 steps with 31755 atoms

Pair  time (%) = 601.781 (89.8711)
Bond  time (%) = 0.780546 (0.116568)
Neigh time (%) = 5.13631 (0.767065)
Comm  time (%) = 25.2716 (3.7741)
Outpt time (%) = 2.09867 (0.313419)
Other time (%) = 34.5369 (5.1578)

Nlocal:    5292.5 ave 5397 max 5173 min
Histogram: 2 0 0 0 1 0 0 1 1 1
Nghost:    7758.67 ave 8043 max 7566 min
Histogram: 2 0 0 0 2 1 0 0 0 1
Neighs:    301750 ave 312137 max 286011 min
Histogram: 1 1 0 0 0 0 1 0 1 2
FullNghs: 603501 ave 622577 max 572525 min
Histogram: 1 0 1 0 0 0 0 1 1 2

Total # of neighbors = 3621004
Ave neighs/atom = 114.029
Ave special neighs/atom = 5.09986
Neighbor list builds = 100
Dangerous builds = 100
velocity all zero linear
WARNING: Use special bonds = 0,1,1 with bond style fene (bond_fene.cpp:189)
Memory usage per processor = 18.1281 Mbytes
Step sdpd_kin pTemp 
  104000 1.0292644e+09 1.008028e+09 
  104100 1.0170152e+09 9.950631e+08 
  104200 1.0331517e+09 1.0110887e+09 
  104300 1.0253816e+09 1.0036392e+09 
  104400 1.0381599e+09 1.0164507e+09 
  104500 1.0222428e+09 1.0006813e+09 
  104600 1.0298827e+09 1.007922e+09 
  104700 1.0253131e+09 1.0031565e+09 
  104800 1.022403e+09 1.000404e+09 
  104900 1.0236076e+09 1.0015991e+09 
  105000 1.0254982e+09 1.0035029e+09 
Loop time of 674.444 on 6 procs for 1000 steps with 31755 atoms

Pair  time (%) = 604.632 (89.6489)
Bond  time (%) = 0.816379 (0.121045)
Neigh time (%) = 5.17929 (0.767934)
Comm  time (%) = 26.6569 (3.95242)
Outpt time (%) = 2.11161 (0.313088)
Other time (%) = 35.0485 (5.19665)

Nlocal:    5292.5 ave 5377 max 5236 min
Histogram: 1 1 1 1 0 0 1 0 0 1
Nghost:    7785.33 ave 8004 max 7558 min
Histogram: 1 1 0 0 0 1 1 1 0 1
Neighs:    301298 ave 308428 max 296400 min
Histogram: 2 0 0 0 2 1 0 0 0 1
FullNghs: 602597 ave 617779 max 590393 min
Histogram: 1 1 0 1 0 2 0 0 0 1

Total # of neighbors = 3615580
Ave neighs/atom = 113.859
Ave special neighs/atom = 5.09986
Neighbor list builds = 100
Dangerous builds = 100
velocity all zero linear
WARNING: Use special bonds = 0,1,1 with bond style fene (bond_fene.cpp:189)
Memory usage per processor = 18.891 Mbytes
Step sdpd_kin pTemp 
  105000 1.0254981e+09 1.0035029e+09 
  105100 1.023978e+09 1.0023752e+09 
  105200 1.0277017e+09 1.0061809e+09 
  105300 1.0325886e+09 1.010643e+09 
  105400 1.0370219e+09 1.0151624e+09 
  105500 1.0271717e+09 1.0048748e+09 
  105600 1.0238037e+09 1.0019302e+09 
  105700 1.0303499e+09 1.0085981e+09 
  105800 1.0214474e+09 9.9966381e+08 
  105900 1.0251101e+09 1.003065e+09 
  106000 1.0228554e+09 1.0002063e+09 
Loop time of 666.201 on 6 procs for 1000 steps with 31755 atoms

Pair  time (%) = 600.229 (90.0973)
Bond  time (%) = 0.798476 (0.119855)
Neigh time (%) = 5.17317 (0.776518)
Comm  time (%) = 22.9057 (3.43827)
Outpt time (%) = 2.11495 (0.317464)
Other time (%) = 34.9796 (5.25061)

Nlocal:    5292.5 ave 5413 max 5145 min
Histogram: 1 1 0 0 0 0 1 1 1 1
Nghost:    7736.5 ave 7888 max 7525 min
Histogram: 1 0 0 0 0 1 3 0 0 1
Neighs:    300641 ave 312729 max 283263 min
Histogram: 1 1 0 0 0 0 1 0 2 1
FullNghs: 601282 ave 625597 max 566553 min
Histogram: 1 1 0 0 0 0 1 0 2 1

Total # of neighbors = 3607690
Ave neighs/atom = 113.61
Ave special neighs/atom = 5.09986
Neighbor list builds = 100
Dangerous builds = 100
velocity all zero linear
WARNING: Use special bonds = 0,1,1 with bond style fene (bond_fene.cpp:189)
Memory usage per processor = 18.891 Mbytes
Step sdpd_kin pTemp 
  106000 1.0228554e+09 1.0002063e+09 
  106100 1.0277459e+09 1.0051498e+09 
  106200 1.0311696e+09 1.0083715e+09 
  106300 1.0286347e+09 1.0062189e+09 
  106400 1.029286e+09 1.0070539e+09 
  106500 1.020209e+09 9.9845349e+08 
  106600 1.0357329e+09 1.0141437e+09 
  106700 1.0224793e+09 1.0011173e+09 
  106800 1.0340235e+09 1.0131757e+09 
  106900 1.0273623e+09 1.0059456e+09 
  107000 1.0223077e+09 1.0005154e+09 
Loop time of 673.516 on 6 procs for 1000 steps with 31755 atoms

Pair  time (%) = 598.585 (88.8746)
Bond  time (%) = 0.786576 (0.116787)
Neigh time (%) = 5.14627 (0.764089)
Comm  time (%) = 32.0983 (4.76578)
Outpt time (%) = 2.10023 (0.31183)
Other time (%) = 34.8 (5.16691)

Nlocal:    5292.5 ave 5437 max 5080 min
Histogram: 1 0 0 0 1 1 0 1 1 1
Nghost:    7695.5 ave 7839 max 7467 min
Histogram: 1 0 0 0 0 2 0 1 0 2
Neighs:    300490 ave 316485 max 281812 min
Histogram: 1 0 0 1 1 0 1 1 0 1
FullNghs: 600981 ave 633889 max 563590 min
Histogram: 1 0 0 1 1 0 1 1 0 1

Total # of neighbors = 3605886
Ave neighs/atom = 113.553
Ave special neighs/atom = 5.09986
Neighbor list builds = 100
Dangerous builds = 100
velocity all zero linear
WARNING: Use special bonds = 0,1,1 with bond style fene (bond_fene.cpp:189)
Memory usage per processor = 18.891 Mbytes
Step sdpd_kin pTemp 
  107000 1.0223077e+09 1.0005154e+09 
  107100 1.0214119e+09 1.0000085e+09 
  107200 1.0247967e+09 1.0034553e+09 
  107300 1.0292669e+09 1.0078689e+09 
  107400 1.0190412e+09 9.9795074e+08 
  107500 1.0326404e+09 1.0113723e+09 
  107600 1.0294661e+09 1.0080318e+09 
  107700 1.0098619e+09 9.8872662e+08 
  107800 1.0210722e+09 1.0000315e+09 
  107900 1.021826e+09 1.0009763e+09 
  108000 1.0262188e+09 1.0058169e+09 
Loop time of 679.758 on 6 procs for 1000 steps with 31755 atoms

Pair  time (%) = 599.583 (88.2054)
Bond  time (%) = 0.796121 (0.117118)
Neigh time (%) = 5.1317 (0.754931)
Comm  time (%) = 38.6199 (5.68143)
Outpt time (%) = 2.10536 (0.309722)
Other time (%) = 33.5216 (4.93141)

Nlocal:    5292.5 ave 5447 max 5131 min
Histogram: 1 0 0 1 0 2 1 0 0 1
Nghost:    7709.5 ave 7873 max 7568 min
Histogram: 1 0 1 1 0 1 1 0 0 1
Neighs:    301271 ave 317770 max 286297 min
Histogram: 1 0 1 0 1 1 1 0 0 1
FullNghs: 602542 ave 637413 max 571299 min
Histogram: 1 0 1 0 1 1 1 0 0 1

Total # of neighbors = 3615254
Ave neighs/atom = 113.848
Ave special neighs/atom = 5.09986
Neighbor list builds = 100
Dangerous builds = 100
velocity all zero linear
WARNING: Use special bonds = 0,1,1 with bond style fene (bond_fene.cpp:189)
Memory usage per processor = 18.891 Mbytes
Step sdpd_kin pTemp 
  108000 1.0262187e+09 1.0058169e+09 
  108100 1.0236722e+09 1.0032253e+09 
  108200 1.0196738e+09 9.9940594e+08 
  108300 1.0191695e+09 9.9880462e+08 
  108400 1.0274886e+09 1.0072332e+09 
  108500 1.0261378e+09 1.005579e+09 
  108600 1.0257422e+09 1.0055275e+09 
  108700 1.0234788e+09 1.0034239e+09 
  108800 1.024282e+09 1.0036614e+09 
  108900 1.0270329e+09 1.0063775e+09 
  109000 1.0320043e+09 1.0118351e+09 
Loop time of 659.56 on 6 procs for 1000 steps with 31755 atoms

Pair  time (%) = 600.009 (90.9712)
Bond  time (%) = 0.802323 (0.121645)
Neigh time (%) = 5.16226 (0.782683)
Comm  time (%) = 17.915 (2.71621)
Outpt time (%) = 2.09567 (0.317738)
Other time (%) = 33.5752 (5.09055)

Nlocal:    5292.5 ave 5366 max 5208 min
Histogram: 1 0 0 0 1 2 0 1 0 1
Nghost:    7643.83 ave 7846 max 7492 min
Histogram: 2 0 0 1 1 0 0 1 0 1
Neighs:    302023 ave 309559 max 293915 min
Histogram: 1 0 0 0 3 0 0 1 0 1
FullNghs: 604046 ave 616676 max 585470 min
Histogram: 1 0 0 0 1 1 1 0 0 2

Total # of neighbors = 3624276
Ave neighs/atom = 114.132
Ave special neighs/atom = 5.09986
Neighbor list builds = 100
Dangerous builds = 100
velocity all zero linear
WARNING: Use special bonds = 0,1,1 with bond style fene (bond_fene.cpp:189)
Memory usage per processor = 18.891 Mbytes
Step sdpd_kin pTemp 
  109000 1.0320042e+09 1.0118351e+09 
  109100 1.0234738e+09 1.0037255e+09 
  109200 1.0227324e+09 1.0026301e+09 
  109300 1.0235298e+09 1.0035042e+09 
  109400 1.0165289e+09 9.9624678e+08 
  109500 1.0228357e+09 1.0029646e+09 
  109600 1.0248917e+09 1.0046488e+09 
  109700 1.0270182e+09 1.0072465e+09 
  109800 1.0236744e+09 1.0037507e+09 
  109900 1.0176715e+09 9.9754091e+08 
  110000 1.0250195e+09 1.0047637e+09 
Loop time of 665.845 on 6 procs for 1000 steps with 31755 atoms

Pair  time (%) = 602.548 (90.4936)
Bond  time (%) = 0.799318 (0.120046)
Neigh time (%) = 5.17659 (0.777447)
Comm  time (%) = 20.8692 (3.13425)
Outpt time (%) = 2.10684 (0.316417)
Other time (%) = 34.3456 (5.1582)

Nlocal:    5292.5 ave 5448 max 5178 min
Histogram: 1 1 1 1 0 0 0 1 0 1
Nghost:    7747.17 ave 7975 max 7580 min
Histogram: 1 1 0 1 0 2 0 0 0 1
Neighs:    302379 ave 316911 max 292259 min
Histogram: 2 1 0 0 1 0 0 0 1 1
FullNghs: 604758 ave 633395 max 586228 min
Histogram: 3 0 0 0 1 0 0 1 0 1

Total # of neighbors = 3628550
Ave neighs/atom = 114.267
Ave special neighs/atom = 5.09986
Neighbor list builds = 100
Dangerous builds = 99
velocity all zero linear
WARNING: Use special bonds = 0,1,1 with bond style fene (bond_fene.cpp:189)
Memory usage per processor = 18.5096 Mbytes
Step sdpd_kin pTemp 
  110000 1.0250191e+09 1.0047637e+09 
  110100 1.022545e+09 1.0023797e+09 
  110200 1.028432e+09 1.0083699e+09 
  110300 1.0208846e+09 1.0008887e+09 
  110400 1.0189204e+09 9.9897421e+08 
  110500 1.0254341e+09 1.0051254e+09 
  110600 1.0286447e+09  1.00832e+09 
  110700 1.0200978e+09 9.9981054e+08 
  110800 1.0266878e+09 1.0065232e+09 
  110900 1.0308722e+09 1.0103303e+09 
  111000 1.0203526e+09 9.9976351e+08 
Loop time of 680.522 on 6 procs for 1000 steps with 31755 atoms

Pair  time (%) = 602.13 (88.4806)
Bond  time (%) = 0.787589 (0.115733)
Neigh time (%) = 5.1501 (0.756786)
Comm  time (%) = 36.6636 (5.38757)
Outpt time (%) = 2.10413 (0.309194)
Other time (%) = 33.6867 (4.95012)

Nlocal:    5292.5 ave 5500 max 5126 min
Histogram: 1 1 0 0 1 1 1 0 0 1
Nghost:    7783 ave 7989 max 7604 min
Histogram: 1 1 1 0 1 0 0 0 0 2
Neighs:    302404 ave 327272 max 286484 min
Histogram: 1 1 1 1 0 1 0 0 0 1
FullNghs: 604808 ave 653165 max 574065 min
Histogram: 2 0 1 1 0 1 0 0 0 1

Total # of neighbors = 3628846
Ave neighs/atom = 114.276
Ave special neighs/atom = 5.09986
Neighbor list builds = 100
Dangerous builds = 100
velocity all zero linear
WARNING: Use special bonds = 0,1,1 with bond style fene (bond_fene.cpp:189)
Memory usage per processor = 18.1281 Mbytes
Step sdpd_kin pTemp 
  111000 1.0203515e+09 9.9976351e+08 
  111100 1.0275736e+09 1.0067406e+09 
  111200 1.0263298e+09 1.0057154e+09 
  111300 1.0268468e+09 1.0061263e+09 
  111400 1.0176155e+09 9.9698121e+08 
  111500 1.0200339e+09 1.0000856e+09 
  111600 1.0279614e+09 1.0075771e+09 
  111700 1.0265631e+09 1.0065161e+09 
  111800 1.0174581e+09 9.9751545e+08 
  111900 1.0280607e+09 1.0075217e+09 
  112000 1.0266708e+09 1.0056045e+09 
Loop time of 697.816 on 6 procs for 1000 steps with 31755 atoms

Pair  time (%) = 603.367 (86.465)
Bond  time (%) = 0.790634 (0.113301)
Neigh time (%) = 5.15276 (0.738413)
Comm  time (%) = 51.7064 (7.40975)
Outpt time (%) = 2.10532 (0.301701)
Other time (%) = 34.6942 (4.97183)

Nlocal:    5292.5 ave 5542 max 5115 min
Histogram: 2 0 0 1 0 2 0 0 0 1
Nghost:    7785.17 ave 7977 max 7515 min
Histogram: 1 0 1 0 0 1 0 0 2 1
Neighs:    302628 ave 328410 max 288261 min
Histogram: 2 1 0 0 1 1 0 0 0 1
FullNghs: 605255 ave 655996 max 577315 min
Histogram: 2 1 0 0 1 1 0 0 0 1

Total # of neighbors = 3631532
Ave neighs/atom = 114.361
Ave special neighs/atom = 5.09986
Neighbor list builds = 100
Dangerous builds = 100
velocity all zero linear
WARNING: Use special bonds = 0,1,1 with bond style fene (bond_fene.cpp:189)
Memory usage per processor = 18.1281 Mbytes
Step sdpd_kin pTemp 
  112000 1.0266696e+09 1.0056045e+09 
  112100 1.0320098e+09 1.0107738e+09 
  112200 1.0240244e+09 1.0027749e+09 
  112300 1.0258706e+09 1.0045328e+09 
  112400 1.0208555e+09 9.9970438e+08 
  112500 1.023647e+09 1.0023163e+09 
  112600 1.0273779e+09 1.0058705e+09 
  112700 1.0143271e+09 9.9300799e+08 
  112800 1.0205705e+09 9.9923215e+08 
  112900 1.0289825e+09 1.0069859e+09 
  113000 1.0258909e+09 1.0038531e+09 
Loop time of 691.272 on 6 procs for 1000 steps with 31755 atoms

Pair  time (%) = 602.499 (87.158)
Bond  time (%) = 0.785246 (0.113594)
Neigh time (%) = 5.13978 (0.743525)
Comm  time (%) = 46.4127 (6.7141)
Outpt time (%) = 2.10607 (0.304665)
Other time (%) = 34.3295 (4.96614)

Nlocal:    5292.5 ave 5523 max 5176 min
Histogram: 2 0 1 1 1 0 0 0 0 1
Nghost:    7721.5 ave 8050 max 7531 min
Histogram: 1 0 2 1 1 0 0 0 0 1
Neighs:    302706 ave 321600 max 291331 min
Histogram: 2 1 0 1 0 0 0 1 0 1
FullNghs: 605412 ave 643805 max 581702 min
Histogram: 2 1 0 1 0 0 0 1 0 1

Total # of neighbors = 3632474
Ave neighs/atom = 114.391
Ave special neighs/atom = 5.09986
Neighbor list builds = 100
Dangerous builds = 100
velocity all zero linear
WARNING: Use special bonds = 0,1,1 with bond style fene (bond_fene.cpp:189)
Memory usage per processor = 18.891 Mbytes
Step sdpd_kin pTemp 
  113000 1.0258903e+09 1.0038531e+09 
  113100 1.0258695e+09 1.0038214e+09 
  113200 1.0215334e+09 9.9938708e+08 
  113300 1.0280635e+09 1.0057548e+09 
  113400 1.0187917e+09 9.9664079e+08 
  113500 1.0284006e+09 1.0062186e+09 
  113600 1.0323825e+09 1.009722e+09 
  113700 1.0337124e+09 1.0112667e+09 
  113800 1.0265052e+09 1.0039294e+09 
  113900 1.0231504e+09 1.0000121e+09 
  114000 1.0304727e+09 1.0074868e+09 
Loop time of 669.973 on 6 procs for 1000 steps with 31755 atoms

Pair  time (%) = 601.121 (89.7231)
Bond  time (%) = 0.785131 (0.117188)
Neigh time (%) = 5.12254 (0.764588)
Comm  time (%) = 27.8334 (4.1544)
Outpt time (%) = 2.0968 (0.312968)
Other time (%) = 33.0146 (4.92775)

Nlocal:    5292.5 ave 5405 max 5047 min
Histogram: 1 0 0 0 0 1 0 1 1 2
Nghost:    7693.83 ave 7868 max 7543 min
Histogram: 2 0 0 1 0 1 0 1 0 1
Neighs:    301527 ave 314252 max 277383 min
Histogram: 1 0 0 0 0 2 0 1 0 2
FullNghs: 603053 ave 626889 max 555205 min
Histogram: 1 0 0 0 0 0 2 1 0 2

Total # of neighbors = 3618320
Ave neighs/atom = 113.945
Ave special neighs/atom = 5.09986
Neighbor list builds = 100
Dangerous builds = 100
velocity all zero linear
WARNING: Use special bonds = 0,1,1 with bond style fene (bond_fene.cpp:189)
Memory usage per processor = 18.891 Mbytes
Step sdpd_kin pTemp 
  114000 1.0304726e+09 1.0074868e+09 
  114100 1.0198038e+09 9.9690622e+08 
  114200 1.0245081e+09 1.0014325e+09 
  114300 1.0297578e+09 1.0063684e+09 
  114400 1.0258561e+09 1.0029458e+09 
  114500 1.0296067e+09 1.0070959e+09 
  114600  1.02838e+09 1.0048859e+09 
  114700 1.0261464e+09 1.0027965e+09 
  114800 1.0365515e+09 1.0134255e+09 
  114900 1.0240213e+09 1.0003239e+09 
  115000 1.0303626e+09 1.0070901e+09 
Loop time of 671.075 on 6 procs for 1000 steps with 31755 atoms

Pair  time (%) = 601.141 (89.5788)
Bond  time (%) = 0.771731 (0.114999)
Neigh time (%) = 5.12586 (0.763828)
Comm  time (%) = 29.697 (4.42529)
Outpt time (%) = 2.09254 (0.31182)
Other time (%) = 32.247 (4.80527)

Nlocal:    5292.5 ave 5468 max 5023 min
Histogram: 1 0 0 0 1 1 0 1 1 1
Nghost:    7696.33 ave 7786 max 7628 min
Histogram: 1 1 0 1 0 1 1 0 0 1
Neighs:    302464 ave 319279 max 275214 min
Histogram: 1 0 0 0 0 1 1 1 1 1
FullNghs: 604927 ave 636184 max 550117 min
Histogram: 1 0 0 0 0 1 1 1 1 1

Total # of neighbors = 3629562
Ave neighs/atom = 114.299
Ave special neighs/atom = 5.09986
Neighbor list builds = 100
Dangerous builds = 100
velocity all zero linear
WARNING: Use special bonds = 0,1,1 with bond style fene (bond_fene.cpp:189)
Memory usage per processor = 18.891 Mbytes
Step sdpd_kin pTemp 
  115000 1.0303626e+09 1.0070901e+09 
  115100 1.0321011e+09 1.009011e+09 
  115200 1.031275e+09 1.0080968e+09 
  115300 1.0242842e+09 1.0011942e+09 
  115400 1.0224749e+09 9.9897894e+08 
  115500 1.0267439e+09 1.0034456e+09 
  115600 1.0225222e+09 9.9920291e+08 
  115700  1.02855e+09 1.0049493e+09 
  115800 1.0212305e+09 9.9755001e+08 
  115900 1.0336438e+09 1.0102059e+09 
  116000 1.0328309e+09 1.0095747e+09 
Loop time of 683.838 on 6 procs for 1000 steps with 31755 atoms

Pair  time (%) = 601.56 (87.9682)
Bond  time (%) = 0.777204 (0.113653)
Neigh time (%) = 5.12301 (0.749155)
Comm  time (%) = 41.8883 (6.12547)
Outpt time (%) = 2.09489 (0.306343)
Other time (%) = 32.3949 (4.73722)

Nlocal:    5292.5 ave 5490 max 5026 min
Histogram: 1 0 0 2 0 0 0 0 1 2
Nghost:    7891.33 ave 8037 max 7790 min
Histogram: 2 0 1 0 1 0 1 0 0 1
Neighs:    301956 ave 324112 max 278695 min
Histogram: 1 0 2 0 0 0 1 0 0 2
FullNghs: 603912 ave 647527 max 555861 min
Histogram: 1 0 2 0 0 0 1 0 0 2

Total # of neighbors = 3623470
Ave neighs/atom = 114.107
Ave special neighs/atom = 5.09986
Neighbor list builds = 100
Dangerous builds = 100
velocity all zero linear
WARNING: Use special bonds = 0,1,1 with bond style fene (bond_fene.cpp:189)
Memory usage per processor = 18.891 Mbytes
Step sdpd_kin pTemp 
  116000 1.0328309e+09 1.0095747e+09 
  116100 1.0327209e+09 1.0095218e+09 
  116200 1.0302424e+09 1.0071237e+09 
  116300 1.0372058e+09 1.0136197e+09 
  116400 1.0267406e+09  1.00358e+09 
  116500 1.0229229e+09 1.0000028e+09 
  116600 1.0246691e+09 1.0022366e+09 
  116700 1.0269566e+09 1.004042e+09 
  116800 1.0251583e+09 1.0025671e+09 
  116900 1.0319594e+09 1.0089846e+09 
  117000 1.026023e+09 1.003316e+09 
Loop time of 693.084 on 6 procs for 1000 steps with 31755 atoms

Pair  time (%) = 602.863 (86.9827)
Bond  time (%) = 0.784485 (0.113188)
Neigh time (%) = 5.11846 (0.738505)
Comm  time (%) = 48.4987 (6.99752)
Outpt time (%) = 2.09138 (0.30175)
Other time (%) = 33.7279 (4.86636)

Nlocal:    5292.5 ave 5500 max 5154 min
Histogram: 2 1 0 0 1 0 0 0 1 1
Nghost:    7849 ave 8000 max 7659 min
Histogram: 1 1 0 0 0 0 1 1 1 1
Neighs:    303106 ave 329033 max 289622 min
Histogram: 3 0 1 0 0 0 0 1 0 1
FullNghs: 606212 ave 658788 max 576695 min
Histogram: 2 1 1 0 0 0 0 1 0 1

Total # of neighbors = 3637272
Ave neighs/atom = 114.542
Ave special neighs/atom = 5.09986
Neighbor list builds = 100
Dangerous builds = 100
velocity all zero linear
WARNING: Use special bonds = 0,1,1 with bond style fene (bond_fene.cpp:189)
Memory usage per processor = 18.891 Mbytes
Step sdpd_kin pTemp 
  117000 1.026023e+09 1.003316e+09 
  117100 1.0219404e+09 9.991109e+08 
  117200 1.0308024e+09 1.0080783e+09 
  117300 1.0256348e+09 1.002397e+09 
  117400 1.0256764e+09 1.0026192e+09 
  117500 1.024095e+09 1.0006377e+09 
  117600 1.0213101e+09 9.9809383e+08 
  117700 1.0173016e+09 9.9377083e+08 
  117800 1.0282595e+09 1.0050237e+09 
  117900 1.0288945e+09 1.0055681e+09 
  118000 1.0244928e+09 1.0007253e+09 
Loop time of 690.355 on 6 procs for 1000 steps with 31755 atoms

Pair  time (%) = 604.986 (87.634)
Bond  time (%) = 0.786475 (0.113923)
Neigh time (%) = 5.15777 (0.747119)
Comm  time (%) = 42.5213 (6.15934)
Outpt time (%) = 2.09884 (0.304023)
Other time (%) = 34.8047 (5.04157)

Nlocal:    5292.5 ave 5389 max 5102 min
Histogram: 1 0 0 0 0 0 2 0 2 1
Nghost:    7797 ave 7964 max 7632 min
Histogram: 1 1 0 1 0 0 0 2 0 1
Neighs:    303755 ave 321684 max 282385 min
Histogram: 1 0 0 0 1 2 1 0 0 1
FullNghs: 607510 ave 645123 max 564210 min
Histogram: 1 0 0 0 1 2 1 0 0 1

Total # of neighbors = 3645062
Ave neighs/atom = 114.787
Ave special neighs/atom = 5.09986
Neighbor list builds = 100
Dangerous builds = 100
velocity all zero linear
WARNING: Use special bonds = 0,1,1 with bond style fene (bond_fene.cpp:189)
Memory usage per processor = 18.891 Mbytes
Step sdpd_kin pTemp 
  118000 1.0244928e+09 1.0007253e+09 
  118100 1.0193417e+09 9.9540496e+08 
  118200 1.0331585e+09 1.0088164e+09 
  118300 1.0389121e+09 1.0144833e+09 
  118400 1.0283513e+09 1.0039521e+09 
  118500 1.0271966e+09 1.0030229e+09 
  118600 1.0275621e+09 1.0032371e+09 
  118700 1.0287015e+09 1.0042489e+09 
  118800 1.024737e+09 1.0007912e+09 
  118900 1.0205211e+09 9.9641668e+08 
  119000 1.0245005e+09 1.0009075e+09 
Loop time of 677.5 on 6 procs for 1000 steps with 31755 atoms

Pair  time (%) = 604.653 (89.2477)
Bond  time (%) = 0.784293 (0.115763)
Neigh time (%) = 5.16194 (0.76191)
Comm  time (%) = 30.6545 (4.52465)
Outpt time (%) = 2.11042 (0.311502)
Other time (%) = 34.1356 (5.03846)

Nlocal:    5292.5 ave 5440 max 5121 min
Histogram: 2 0 0 0 1 0 0 1 1 1
Nghost:    7765.33 ave 8061 max 7537 min
Histogram: 1 1 1 1 0 0 0 0 1 1
Neighs:    304168 ave 317434 max 286749 min
Histogram: 1 1 0 0 0 1 0 0 1 2
FullNghs: 608337 ave 635207 max 574148 min
Histogram: 1 1 0 0 0 1 0 1 0 2

Total # of neighbors = 3650020
Ave neighs/atom = 114.943
Ave special neighs/atom = 5.09986
Neighbor list builds = 100
Dangerous builds = 100
velocity all zero linear
WARNING: Use special bonds = 0,1,1 with bond style fene (bond_fene.cpp:189)
Memory usage per processor = 18.891 Mbytes
Step sdpd_kin pTemp 
  119000 1.0245004e+09 1.0009075e+09 
  119100 1.0181443e+09 9.9440274e+08 
  119200 1.0188537e+09 9.9494162e+08 
  119300 1.0220977e+09 9.9783363e+08 
  119400 1.0274126e+09 1.0032982e+09 
  119500 1.0219805e+09 9.9784969e+08 
  119600 1.0350406e+09 1.0107905e+09 
  119700 1.0328829e+09 1.0085722e+09 
  119800 1.0213432e+09 9.9693731e+08 
  119900 1.026248e+09 1.0018389e+09 
  120000 1.032391e+09 1.0074769e+09 
Loop time of 679.869 on 6 procs for 1000 steps with 31755 atoms

Pair  time (%) = 604.257 (88.8783)
Bond  time (%) = 0.780515 (0.114804)
Neigh time (%) = 5.1522 (0.757822)
Comm  time (%) = 34.3645 (5.05457)
Outpt time (%) = 2.11646 (0.311303)
Other time (%) = 33.1991 (4.88316)

Nlocal:    5292.5 ave 5470 max 5087 min
Histogram: 1 0 0 0 2 1 0 1 0 1
Nghost:    7754.5 ave 8023 max 7587 min
Histogram: 1 1 1 0 1 1 0 0 0 1
Neighs:    301910 ave 316848 max 284158 min
Histogram: 1 0 0 1 0 1 1 1 0 1
FullNghs: 603821 ave 634206 max 567761 min
Histogram: 1 0 0 1 0 1 2 0 0 1

Total # of neighbors = 3622926
Ave neighs/atom = 114.09
Ave special neighs/atom = 5.09986
Neighbor list builds = 100
Dangerous builds = 99
velocity all zero linear
WARNING: Use special bonds = 0,1,1 with bond style fene (bond_fene.cpp:189)
Memory usage per processor = 18.891 Mbytes
Step sdpd_kin pTemp 
  120000 1.032391e+09 1.0074769e+09 
  120100 1.0248711e+09 1.0003431e+09 
  120200 1.030792e+09 1.0059632e+09 
  120300 1.0267995e+09 1.001629e+09 
  120400 1.0307884e+09 1.0058792e+09 
  120500 1.0284439e+09 1.0033193e+09 
  120600 1.0269342e+09 1.0013018e+09 
  120700 1.0281835e+09 1.0021826e+09 
  120800 1.0330248e+09 1.0073274e+09 
  120900 1.0261069e+09 1.000771e+09 
  121000 1.0310086e+09 1.0058125e+09 
Loop time of 672.276 on 6 procs for 1000 steps with 31755 atoms

Pair  time (%) = 601.631 (89.4916)
Bond  time (%) = 0.78457 (0.116703)
Neigh time (%) = 5.16477 (0.76825)
Comm  time (%) = 28.7738 (4.28006)
Outpt time (%) = 2.0994 (0.312282)
Other time (%) = 33.8232 (5.03114)

Nlocal:    5292.5 ave 5453 max 5165 min
Histogram: 2 0 0 2 0 0 0 0 1 1
Nghost:    7697.67 ave 7857 max 7549 min
Histogram: 1 0 1 1 1 0 0 0 1 1
Neighs:    302328 ave 313134 max 291407 min
Histogram: 2 0 0 1 0 0 1 0 0 2
FullNghs: 604655 ave 627359 max 582314 min
Histogram: 2 0 0 1 0 0 1 0 0 2

Total # of neighbors = 3627932
Ave neighs/atom = 114.248
Ave special neighs/atom = 5.09986
Neighbor list builds = 100
Dangerous builds = 100
velocity all zero linear
WARNING: Use special bonds = 0,1,1 with bond style fene (bond_fene.cpp:189)
Memory usage per processor = 18.891 Mbytes
Step sdpd_kin pTemp 
  121000 1.0310085e+09 1.0058125e+09 
  121100 1.0318096e+09 1.0067903e+09 
  121200 1.0291958e+09 1.0041597e+09 
  121300 1.0289186e+09 1.0040687e+09 
  121400 1.0318216e+09 1.006684e+09 
  121500 1.0242253e+09 9.991978e+08 
  121600 1.0286335e+09 1.0044693e+09 
  121700 1.0307281e+09 1.0059441e+09 
  121800 1.0287065e+09 1.0033938e+09 
  121900 1.0274629e+09 1.0022854e+09 
  122000 1.0297597e+09 1.0048125e+09 
Loop time of 671.098 on 6 procs for 1000 steps with 31755 atoms

Pair  time (%) = 602.883 (89.8352)
Bond  time (%) = 0.789677 (0.117669)
Neigh time (%) = 5.15467 (0.768094)
Comm  time (%) = 27.8444 (4.14908)
Outpt time (%) = 2.11798 (0.315598)
Other time (%) = 32.3091 (4.81437)

Nlocal:    5292.5 ave 5404 max 5108 min
Histogram: 1 0 0 1 0 0 1 0 1 2
Nghost:    7759.33 ave 7975 max 7406 min
Histogram: 1 0 0 1 0 0 0 2 1 1
Neighs:    303431 ave 314068 max 286907 min
Histogram: 1 0 1 0 0 0 1 0 2 1
FullNghs: 606862 ave 629545 max 571863 min
Histogram: 1 0 1 0 0 0 1 0 1 2

Total # of neighbors = 3641170
Ave neighs/atom = 114.664
Ave special neighs/atom = 5.09986
Neighbor list builds = 100
Dangerous builds = 100
velocity all zero linear
WARNING: Use special bonds = 0,1,1 with bond style fene (bond_fene.cpp:189)
Memory usage per processor = 18.1281 Mbytes
Step sdpd_kin pTemp 
  122000 1.0297597e+09 1.0048125e+09 
  122100 1.0290137e+09 1.0039084e+09 
  122200 1.0206153e+09 9.9527473e+08 
  122300 1.0325955e+09 1.0075931e+09 
  122400 1.0297033e+09 1.0051324e+09 
  122500 1.0266525e+09 1.0016347e+09 
  122600 1.0277548e+09 1.0038553e+09 
  122700 1.0267628e+09 1.0028936e+09 
  122800 1.033536e+09 1.0097374e+09 
  122900 1.0262973e+09 1.0023663e+09 
  123000 1.0316415e+09 1.0077252e+09 
Loop time of 673.173 on 6 procs for 1000 steps with 31755 atoms

Pair  time (%) = 604.661 (89.8226)
Bond  time (%) = 0.775986 (0.115273)
Neigh time (%) = 5.14606 (0.764449)
Comm  time (%) = 26.5508 (3.94412)
Outpt time (%) = 2.11827 (0.31467)
Other time (%) = 33.9204 (5.03889)

Nlocal:    5292.5 ave 5374 max 5144 min
Histogram: 1 0 0 0 0 1 1 1 1 1
Nghost:    7864.17 ave 8079 max 7731 min
Histogram: 3 0 0 0 0 1 1 0 0 1
Neighs:    302748 ave 311985 max 289941 min
Histogram: 1 0 0 0 1 1 1 0 1 1
FullNghs: 605496 ave 623437 max 579051 min
Histogram: 1 0 0 0 0 2 0 1 1 1

Total # of neighbors = 3632978
Ave neighs/atom = 114.406
Ave special neighs/atom = 5.09986
Neighbor list builds = 100
Dangerous builds = 100
velocity all zero linear
WARNING: Use special bonds = 0,1,1 with bond style fene (bond_fene.cpp:189)
Memory usage per processor = 18.1281 Mbytes
Step sdpd_kin pTemp 
  123000 1.0316415e+09 1.0077252e+09 
  123100 1.0243026e+09 1.0005894e+09 
  123200 1.0303705e+09 1.006543e+09 
  123300 1.016494e+09 9.9306554e+08 
  123400 1.0288591e+09 1.0047364e+09 
  123500 1.029161e+09 1.0053372e+09 
  123600 1.028705e+09 1.0048487e+09 
  123700 1.0285766e+09 1.0047893e+09 
  123800 1.0285203e+09 1.0046338e+09 
  123900 1.0227205e+09 9.9935465e+08 
  124000 1.0279806e+09 1.0045796e+09 
Loop time of 665.636 on 6 procs for 1000 steps with 31755 atoms

Pair  time (%) = 602.73 (90.5494)
Bond  time (%) = 0.784377 (0.117839)
Neigh time (%) = 5.16583 (0.776075)
Comm  time (%) = 21.1088 (3.17122)
Outpt time (%) = 2.10399 (0.316087)
Other time (%) = 33.7434 (5.06934)

Nlocal:    5292.5 ave 5390 max 5219 min
Histogram: 1 1 0 1 0 2 0 0 0 1
Nghost:    7805.5 ave 7908 max 7634 min
Histogram: 1 0 0 0 1 0 1 1 1 1
Neighs:    303415 ave 310093 max 294770 min
Histogram: 1 0 0 1 1 0 0 1 1 1
FullNghs: 606829 ave 621210 max 589789 min
Histogram: 1 0 0 2 0 0 0 2 0 1

Total # of neighbors = 3640976
Ave neighs/atom = 114.658
Ave special neighs/atom = 5.09986
Neighbor list builds = 100
Dangerous builds = 100
velocity all zero linear
WARNING: Use special bonds = 0,1,1 with bond style fene (bond_fene.cpp:189)
Memory usage per processor = 18.891 Mbytes
Step sdpd_kin pTemp 
  124000 1.0279806e+09 1.0045796e+09 
  124100  1.02975e+09 1.0063609e+09 
  124200 1.0266588e+09 1.0028635e+09 
  124300 1.0291669e+09 1.0053453e+09 
  124400 1.0263802e+09 1.0026831e+09 
  124500 1.0288475e+09 1.0052978e+09 
  124600 1.0284574e+09 1.0044538e+09 
  124700 1.0239851e+09 1.0001835e+09 
  124800 1.0268038e+09 1.0029776e+09 
  124900 1.0303344e+09 1.006448e+09 
  125000 1.022919e+09 9.9924311e+08 
Loop time of 667.227 on 6 procs for 1000 steps with 31755 atoms

Pair  time (%) = 602.114 (90.2413)
Bond  time (%) = 0.790851 (0.118528)
Neigh time (%) = 5.1681 (0.774564)
Comm  time (%) = 24.0043 (3.59763)
Outpt time (%) = 2.11993 (0.317722)
Other time (%) = 33.0294 (4.95025)

Nlocal:    5292.5 ave 5361 max 5118 min
Histogram: 1 0 0 0 0 0 1 0 1 3
Nghost:    7809 ave 7947 max 7590 min
Histogram: 1 0 0 1 0 0 0 2 1 1
Neighs:    302772 ave 311128 max 286297 min
Histogram: 1 0 0 0 0 1 0 1 2 1
FullNghs: 605543 ave 621553 max 572878 min
Histogram: 1 0 0 0 0 1 0 1 2 1

Total # of neighbors = 3633258
Ave neighs/atom = 114.415
Ave special neighs/atom = 5.09986
Neighbor list builds = 100
Dangerous builds = 100
velocity all zero linear
WARNING: Use special bonds = 0,1,1 with bond style fene (bond_fene.cpp:189)
Memory usage per processor = 18.1281 Mbytes
Step sdpd_kin pTemp 
  125000 1.022919e+09 9.9924311e+08 
  125100 1.0236801e+09 1.0004266e+09 
  125200 1.0290638e+09 1.0054253e+09 
  125300 1.0196565e+09 9.963667e+08 
  125400 1.0183009e+09 9.9523838e+08 
  125500 1.0191176e+09 9.9574176e+08 
  125600 1.0278481e+09 1.0045038e+09 
  125700 1.0236475e+09 1.0002571e+09 
  125800 1.035145e+09 1.0116318e+09 
  125900 1.0248501e+09 1.0017312e+09 
  126000 1.0252746e+09 1.0015869e+09 
Loop time of 672.896 on 6 procs for 1000 steps with 31755 atoms

Pair  time (%) = 602.578 (89.5498)
Bond  time (%) = 0.786637 (0.116903)
Neigh time (%) = 5.16688 (0.767857)
Comm  time (%) = 29.1333 (4.32954)
Outpt time (%) = 2.13467 (0.317236)
Other time (%) = 33.0974 (4.91865)

Nlocal:    5292.5 ave 5378 max 5209 min
Histogram: 1 1 1 0 0 0 1 0 0 2
Nghost:    7779.83 ave 7918 max 7560 min
Histogram: 1 0 1 0 0 0 1 1 0 2
Neighs:    302816 ave 313052 max 293353 min
Histogram: 1 0 1 1 1 0 0 1 0 1
FullNghs: 605633 ave 625580 max 585887 min
Histogram: 1 0 0 1 1 1 0 1 0 1

Total # of neighbors = 3633798
Ave neighs/atom = 114.432
Ave special neighs/atom = 5.09986
Neighbor list builds = 100
Dangerous builds = 100
velocity all zero linear
WARNING: Use special bonds = 0,1,1 with bond style fene (bond_fene.cpp:189)
Memory usage per processor = 18.1281 Mbytes
Step sdpd_kin pTemp 
  126000 1.0252745e+09 1.0015869e+09 
  126100 1.0258637e+09 1.0020115e+09 
  126200 1.0203923e+09 9.9639667e+08 
  126300 1.0236726e+09 9.9969492e+08 
  126400 1.0251944e+09 1.0008851e+09 
  126500 1.0364898e+09 1.0121521e+09 
  126600 1.0278091e+09 1.0028497e+09 
  126700 1.029393e+09 1.0042261e+09 
  126800 1.0271138e+09 1.0030391e+09 
  126900 1.0304479e+09 1.0062005e+09 
  127000 1.0306522e+09 1.0063321e+09 
Loop time of 663.851 on 6 procs for 1000 steps with 31755 atoms

Pair  time (%) = 601.358 (90.5864)
Bond  time (%) = 0.794378 (0.119662)
Neigh time (%) = 5.16234 (0.777635)
Comm  time (%) = 21.6633 (3.26328)
Outpt time (%) = 2.11439 (0.318503)
Other time (%) = 32.758 (4.93454)

Nlocal:    5292.5 ave 5343 max 5241 min
Histogram: 2 1 0 0 0 0 0 0 1 2
Nghost:    7775.5 ave 7982 max 7525 min
Histogram: 1 0 1 0 0 0 2 1 0 1
Neighs:    301959 ave 308806 max 296316 min
Histogram: 1 0 1 0 2 1 0 0 0 1
FullNghs: 603918 ave 619936 max 592026 min
Histogram: 1 0 1 1 2 0 0 0 0 1

Total # of neighbors = 3623510
Ave neighs/atom = 114.108
Ave special neighs/atom = 5.09986
Neighbor list builds = 100
Dangerous builds = 100
velocity all zero linear
WARNING: Use special bonds = 0,1,1 with bond style fene (bond_fene.cpp:189)
Memory usage per processor = 18.891 Mbytes
Step sdpd_kin pTemp 
  127000 1.0306522e+09 1.0063321e+09 
  127100 1.0242138e+09 1.0000468e+09 
  127200 1.0261945e+09 1.0025041e+09 
  127300 1.0234595e+09 9.9966616e+08 
  127400 1.028907e+09 1.0050278e+09 
  127500  1.02872e+09 1.0049009e+09 
  127600 1.033116e+09 1.0094459e+09 
  127700 1.0281821e+09 1.0049079e+09 
  127800 1.0254765e+09 1.0023909e+09 
  127900 1.0207408e+09 9.9765885e+08 
  128000 1.0234491e+09 1.0005881e+09 
Loop time of 665.658 on 6 procs for 1000 steps with 31755 atoms

Pair  time (%) = 602.836 (90.5625)
Bond  time (%) = 0.790769 (0.118795)
Neigh time (%) = 5.17077 (0.776792)
Comm  time (%) = 22.4546 (3.3733)
Outpt time (%) = 2.10996 (0.316974)
Other time (%) = 32.2955 (4.85167)

Nlocal:    5292.5 ave 5351 max 5224 min
Histogram: 1 0 0 0 2 0 2 0 0 1
Nghost:    7719.83 ave 7833 max 7554 min
Histogram: 1 0 0 0 1 1 0 1 1 1
Neighs:    302897 ave 306317 max 298798 min
Histogram: 1 0 1 1 0 0 0 0 2 1
FullNghs: 605794 ave 614314 max 595869 min
Histogram: 1 0 1 0 1 0 1 1 0 1

Total # of neighbors = 3634764
Ave neighs/atom = 114.463
Ave special neighs/atom = 5.09986
Neighbor list builds = 100
Dangerous builds = 100
velocity all zero linear
WARNING: Use special bonds = 0,1,1 with bond style fene (bond_fene.cpp:189)
Memory usage per processor = 18.891 Mbytes
Step sdpd_kin pTemp 
  128000 1.023449e+09 1.0005881e+09 
  128100 1.0214203e+09 9.9870671e+08 
  128200 1.0208787e+09 9.9866585e+08 
  128300 1.0305007e+09 1.0082051e+09 
  128400 1.0255168e+09 1.0030213e+09 
  128500 1.0212636e+09 9.9903819e+08 
  128600 1.0251698e+09 1.0033922e+09 
  128700 1.0340134e+09 1.0124055e+09 
  128800 1.0307462e+09 1.0095436e+09 
  128900 1.0227779e+09 1.0015332e+09 
  129000 1.0259517e+09 1.0049625e+09 
Loop time of 661.641 on 6 procs for 1000 steps with 31755 atoms

Pair  time (%) = 601.706 (90.9415)
Bond  time (%) = 0.787196 (0.118976)
Neigh time (%) = 5.16726 (0.780977)
Comm  time (%) = 18.243 (2.75723)
Outpt time (%) = 2.11177 (0.319172)
Other time (%) = 33.6259 (5.08219)

Nlocal:    5292.5 ave 5347 max 5213 min
Histogram: 1 0 0 0 1 1 1 0 0 2
Nghost:    7844.33 ave 8018 max 7685 min
Histogram: 1 0 1 1 0 1 0 1 0 1
Neighs:    301939 ave 311652 max 292048 min
Histogram: 1 0 0 2 1 0 0 0 1 1
FullNghs: 603878 ave 622184 max 584799 min
Histogram: 1 0 0 1 2 0 0 0 1 1

Total # of neighbors = 3623270
Ave neighs/atom = 114.101
Ave special neighs/atom = 5.09986
Neighbor list builds = 100
Dangerous builds = 100
velocity all zero linear
WARNING: Use special bonds = 0,1,1 with bond style fene (bond_fene.cpp:189)
Memory usage per processor = 18.891 Mbytes
Step sdpd_kin pTemp 
  129000 1.0259516e+09 1.0049625e+09 
  129100 1.0207831e+09 9.995124e+08 
  129200 1.0218552e+09 1.0002925e+09 
  129300 1.0218891e+09 1.0005938e+09 
  129400 1.0288814e+09 1.0076805e+09 
  129500 1.0255486e+09 1.0037416e+09 
  129600 1.0256166e+09 1.003822e+09 
  129700 1.0242009e+09 1.0024052e+09 
  129800 1.0211958e+09 9.9912745e+08 
  129900 1.0268855e+09 1.0051828e+09 
  130000 1.0175526e+09 9.9590504e+08 
Loop time of 664.386 on 6 procs for 1000 steps with 31755 atoms

Pair  time (%) = 601.092 (90.4733)
Bond  time (%) = 0.788261 (0.118645)
Neigh time (%) = 5.15952 (0.776584)
Comm  time (%) = 20.4021 (3.07082)
Outpt time (%) = 2.14546 (0.322923)
Other time (%) = 34.7985 (5.23769)

Nlocal:    5292.5 ave 5409 max 5147 min
Histogram: 1 0 0 2 0 0 1 0 0 2
Nghost:    7834 ave 7912 max 7694 min
Histogram: 1 0 0 0 0 2 0 1 0 2
Neighs:    300967 ave 314084 max 283468 min
Histogram: 1 0 0 1 1 0 0 1 1 1
FullNghs: 601934 ave 626937 max 569545 min
Histogram: 1 0 0 1 1 0 0 1 1 1

Total # of neighbors = 3611606
Ave neighs/atom = 113.733
Ave special neighs/atom = 5.09986
Neighbor list builds = 100
Dangerous builds = 99
velocity all zero linear
WARNING: Use special bonds = 0,1,1 with bond style fene (bond_fene.cpp:189)
Memory usage per processor = 18.891 Mbytes
Step sdpd_kin pTemp 
  130000 1.0175526e+09 9.9590504e+08 
  130100 1.0265372e+09 1.0043816e+09 
  130200 1.0191418e+09 9.9678903e+08 
  130300 1.0211707e+09 9.9978312e+08 
  130400 1.0299893e+09 1.0084181e+09 
  130500 1.0191918e+09 9.9780205e+08 
  130600 1.0168949e+09 9.9540432e+08 
  130700 1.0152174e+09 9.9341595e+08 
  130800  1.01959e+09 9.9782721e+08 
  130900 1.0299554e+09 1.0084442e+09 
  131000 1.0220351e+09 1.0003179e+09 
Loop time of 662.627 on 6 procs for 1000 steps with 31755 atoms

Pair  time (%) = 598.226 (90.2809)
Bond  time (%) = 0.781626 (0.117959)
Neigh time (%) = 5.13993 (0.77569)
Comm  time (%) = 24.216 (3.65455)
Outpt time (%) = 2.11616 (0.31936)
Other time (%) = 32.1478 (4.85157)

Nlocal:    5292.5 ave 5375 max 5167 min
Histogram: 1 0 1 0 0 1 0 1 0 2
Nghost:    7816.5 ave 8003 max 7644 min
Histogram: 1 0 1 1 0 1 1 0 0 1
Neighs:    301500 ave 313337 max 285736 min
Histogram: 1 0 0 1 1 0 0 1 1 1
FullNghs: 603000 ave 626825 max 571116 min
Histogram: 1 0 0 1 1 0 0 1 1 1

Total # of neighbors = 3617998
Ave neighs/atom = 113.935
Ave special neighs/atom = 5.09986
Neighbor list builds = 100
Dangerous builds = 100
velocity all zero linear
WARNING: Use special bonds = 0,1,1 with bond style fene (bond_fene.cpp:189)
Memory usage per processor = 18.891 Mbytes
Step sdpd_kin pTemp 
  131000 1.0220351e+09 1.0003179e+09 
  131100 1.0273506e+09 1.0061017e+09 
  131200 1.0284997e+09 1.0074657e+09 
  131300 1.0252442e+09 1.0040378e+09 
  131400 1.0194461e+09 9.9779739e+08 
  131500 1.0253693e+09 1.0040093e+09 
  131600 1.0328293e+09 1.0116008e+09 
  131700 1.0254509e+09 1.0041976e+09 
  131800 1.0235602e+09 1.0021687e+09 
  131900 1.0274126e+09 1.005972e+09 
  132000 1.0221277e+09 1.0009374e+09 
Loop time of 665.362 on 6 procs for 1000 steps with 31755 atoms

Pair  time (%) = 599.549 (90.1088)
Bond  time (%) = 0.788209 (0.118463)
Neigh time (%) = 5.16162 (0.775761)
Comm  time (%) = 22.444 (3.37321)
Outpt time (%) = 2.10191 (0.315904)
Other time (%) = 35.3165 (5.30786)

Nlocal:    5292.5 ave 5404 max 5154 min
Histogram: 1 0 1 0 1 0 0 1 1 1
Nghost:    7862.67 ave 8079 max 7702 min
Histogram: 1 0 1 1 1 1 0 0 0 1
Neighs:    302302 ave 314218 max 287976 min
Histogram: 2 0 0 0 0 1 0 1 0 2
FullNghs: 604604 ave 628270 max 576089 min
Histogram: 2 0 0 0 0 1 0 1 0 2

Total # of neighbors = 3627622
Ave neighs/atom = 114.238
Ave special neighs/atom = 5.09986
Neighbor list builds = 100
Dangerous builds = 100
velocity all zero linear
WARNING: Use special bonds = 0,1,1 with bond style fene (bond_fene.cpp:189)
Memory usage per processor = 18.891 Mbytes
Step sdpd_kin pTemp 
  132000 1.0221276e+09 1.0009374e+09 
  132100 1.0338621e+09 1.0113802e+09 
  132200 1.0229594e+09 1.0012121e+09 
  132300 1.0282154e+09 1.0060843e+09 
  132400 1.0190898e+09 9.9738028e+08 
  132500 1.0222779e+09 1.0002899e+09 
  132600 1.0195998e+09 9.9783576e+08 
  132700 1.034587e+09 1.0122668e+09 
  132800 1.0244808e+09 1.0018512e+09 
  132900 1.0251073e+09 1.0032872e+09 
  133000 1.0249554e+09 1.0029288e+09 
Loop time of 676.053 on 6 procs for 1000 steps with 31755 atoms

Pair  time (%) = 602.568 (89.1303)
Bond  time (%) = 0.785327 (0.116164)
Neigh time (%) = 5.15666 (0.76276)
Comm  time (%) = 30.652 (4.53396)
Outpt time (%) = 2.10175 (0.310885)
Other time (%) = 34.7893 (5.14595)

Nlocal:    5292.5 ave 5424 max 5163 min
Histogram: 1 0 1 1 0 0 1 1 0 1
Nghost:    7754 ave 7907 max 7595 min
Histogram: 2 0 0 0 1 0 1 0 0 2
Neighs:    303483 ave 318228 max 292281 min
Histogram: 2 0 1 0 0 1 0 1 0 1
FullNghs: 606966 ave 635076 max 584490 min
Histogram: 2 0 1 0 0 1 0 1 0 1

Total # of neighbors = 3641794
Ave neighs/atom = 114.684
Ave special neighs/atom = 5.09986
Neighbor list builds = 100
Dangerous builds = 100
velocity all zero linear
WARNING: Use special bonds = 0,1,1 with bond style fene (bond_fene.cpp:189)
Memory usage per processor = 18.891 Mbytes
Step sdpd_kin pTemp 
  133000 1.0249553e+09 1.0029288e+09 
  133100 1.0266257e+09 1.004371e+09 
  133200 1.0289887e+09 1.0065283e+09 
  133300 1.0290005e+09 1.0064706e+09 
  133400 1.0216492e+09 9.9916069e+08 
  133500 1.0279325e+09 1.0060396e+09 
  133600 1.0214076e+09 9.9946287e+08 
  133700 1.0384989e+09 1.0157442e+09 
  133800 1.0273248e+09 1.0048611e+09 
  133900 1.0284206e+09 1.0062288e+09 
  134000 1.019471e+09 9.9694896e+08 
Loop time of 672.998 on 6 procs for 1000 steps with 31755 atoms

Pair  time (%) = 603.391 (89.6573)
Bond  time (%) = 0.788434 (0.117152)
Neigh time (%) = 5.17267 (0.768601)
Comm  time (%) = 27.9349 (4.15082)
Outpt time (%) = 2.10244 (0.312399)
Other time (%) = 33.6079 (4.99376)

Nlocal:    5292.5 ave 5390 max 5135 min
Histogram: 1 0 0 0 1 0 1 1 0 2
Nghost:    7838 ave 8062 max 7665 min
Histogram: 1 0 2 0 1 0 1 0 0 1
Neighs:    302040 ave 315151 max 285331 min
Histogram: 1 0 1 0 0 0 2 1 0 1
FullNghs: 604081 ave 632367 max 573319 min
Histogram: 1 0 1 0 0 0 3 0 0 1

Total # of neighbors = 3624486
Ave neighs/atom = 114.139
Ave special neighs/atom = 5.09986
Neighbor list builds = 100
Dangerous builds = 100
velocity all zero linear
WARNING: Use special bonds = 0,1,1 with bond style fene (bond_fene.cpp:189)
Memory usage per processor = 18.891 Mbytes
Step sdpd_kin pTemp 
  134000 1.0194707e+09 9.9694896e+08 
  134100 1.0260154e+09 1.0034242e+09 
  134200 1.0330878e+09 1.0108804e+09 
  134300 1.0298477e+09 1.0076983e+09 
  134400 1.0278091e+09 1.0055827e+09 
  134500 1.0220686e+09 1.0003124e+09 
  134600 1.0300026e+09 1.0077284e+09 
  134700 1.0194183e+09 9.9748653e+08 
  134800 1.023533e+09 1.001487e+09 
  134900 1.0274588e+09 1.0055474e+09 
  135000 1.0183238e+09 9.9603241e+08 
Loop time of 677.821 on 6 procs for 1000 steps with 31755 atoms

Pair  time (%) = 603.174 (88.9872)
Bond  time (%) = 0.777986 (0.114777)
Neigh time (%) = 5.15577 (0.760639)
Comm  time (%) = 32.7656 (4.83396)
Outpt time (%) = 2.11055 (0.311372)
Other time (%) = 33.8375 (4.9921)

Nlocal:    5292.5 ave 5513 max 5184 min
Histogram: 2 1 1 0 1 0 0 0 0 1
Nghost:    7811.67 ave 7861 max 7734 min
Histogram: 1 0 0 0 1 0 1 1 0 2
Neighs:    303812 ave 325359 max 292263 min
Histogram: 3 0 0 1 0 0 1 0 0 1
FullNghs: 607624 ave 650882 max 585835 min
Histogram: 3 0 0 1 0 1 0 0 0 1

Total # of neighbors = 3645746
Ave neighs/atom = 114.809
Ave special neighs/atom = 5.09986
Neighbor list builds = 100
Dangerous builds = 100
velocity all zero linear
WARNING: Use special bonds = 0,1,1 with bond style fene (bond_fene.cpp:189)
Memory usage per processor = 18.891 Mbytes
Step sdpd_kin pTemp 
  135000 1.0183229e+09 9.9603241e+08 
  135100 1.0261505e+09 1.0045136e+09 
  135200 1.0218099e+09 9.9933582e+08 
  135300 1.028952e+09 1.0059267e+09 
  135400 1.0213985e+09 9.9880884e+08 
  135500 1.0313419e+09 1.0095709e+09 
  135600 1.0235032e+09 1.0016176e+09 
  135700 1.029622e+09 1.0075787e+09 
  135800 1.0277818e+09 1.0055009e+09 
  135900 1.0270271e+09 1.004672e+09 
  136000 1.0232616e+09 1.0014846e+09 
Loop time of 688.514 on 6 procs for 1000 steps with 31755 atoms

Pair  time (%) = 604.709 (87.8282)
Bond  time (%) = 0.785111 (0.11403)
Neigh time (%) = 5.15125 (0.748169)
Comm  time (%) = 40.4185 (5.87039)
Outpt time (%) = 2.09034 (0.303602)
Other time (%) = 35.3594 (5.13561)

Nlocal:    5292.5 ave 5405 max 5138 min
Histogram: 1 0 1 0 0 1 1 0 0 2
Nghost:    7982.17 ave 8165 max 7747 min
Histogram: 1 0 1 0 1 0 0 1 0 2
Neighs:    302756 ave 315663 max 291532 min
Histogram: 1 1 1 0 1 0 0 0 0 2
FullNghs: 605511 ave 634359 max 582663 min
Histogram: 1 1 1 1 0 0 0 0 1 1

Total # of neighbors = 3633068
Ave neighs/atom = 114.409
Ave special neighs/atom = 5.09986
Neighbor list builds = 100
Dangerous builds = 100
velocity all zero linear
WARNING: Use special bonds = 0,1,1 with bond style fene (bond_fene.cpp:189)
Memory usage per processor = 18.891 Mbytes
Step sdpd_kin pTemp 
  136000 1.0232609e+09 1.0014846e+09 
  136100 1.0269212e+09 1.0051825e+09 
  136200 1.025373e+09 1.0040546e+09 
  136300 1.0340232e+09 1.0125298e+09 
  136400 1.0228241e+09 1.0008447e+09 
  136500 1.0335828e+09 1.0114485e+09 
  136600 1.0219614e+09 1.0001799e+09 
  136700 1.015603e+09 9.9371288e+08 
  136800 1.0289461e+09 1.0074361e+09 
  136900 1.0178647e+09 9.9653871e+08 
  137000 1.016178e+09 9.948296e+08 
Loop time of 672.069 on 6 procs for 1000 steps with 31755 atoms

Pair  time (%) = 601.177 (89.4517)
Bond  time (%) = 0.800317 (0.119083)
Neigh time (%) = 5.15631 (0.767228)
Comm  time (%) = 27.7979 (4.13617)
Outpt time (%) = 2.0959 (0.311858)
Other time (%) = 35.0416 (5.21398)

Nlocal:    5292.5 ave 5423 max 5176 min
Histogram: 1 1 1 0 0 1 0 0 1 1
Nghost:    7903.5 ave 8025 max 7786 min
Histogram: 1 1 1 0 0 0 1 0 0 2
Neighs:    302432 ave 311794 max 292099 min
Histogram: 1 1 0 1 0 0 0 1 0 2
FullNghs: 604865 ave 622124 max 583707 min
Histogram: 1 0 1 1 0 0 0 1 0 2

Total # of neighbors = 3629190
Ave neighs/atom = 114.287
Ave special neighs/atom = 5.09986
Neighbor list builds = 100
Dangerous builds = 100
velocity all zero linear
WARNING: Use special bonds = 0,1,1 with bond style fene (bond_fene.cpp:189)
Memory usage per processor = 18.891 Mbytes
Step sdpd_kin pTemp 
  137000 1.0161779e+09 9.948296e+08 
  137100 1.0187325e+09 9.9761628e+08 
  137200 1.0205631e+09 9.9902626e+08 
  137300 1.0281351e+09 1.0069637e+09 
  137400 1.0191146e+09 9.9830339e+08 
  137500 1.0152626e+09 9.9381634e+08 
  137600 1.0181615e+09 9.9669901e+08 
  137700 1.0240482e+09 1.002528e+09 
  137800 1.0277675e+09 1.0063659e+09 
  137900 1.0201578e+09 9.9884489e+08 
  138000 1.0241657e+09 1.0032429e+09 
Loop time of 659.586 on 6 procs for 1000 steps with 31755 atoms

Pair  time (%) = 599.829 (90.9402)
Bond  time (%) = 0.79848 (0.121058)
Neigh time (%) = 5.17147 (0.784049)
Comm  time (%) = 17.8161 (2.7011)
Outpt time (%) = 2.09421 (0.317503)
Other time (%) = 33.8767 (5.13605)

Nlocal:    5292.5 ave 5425 max 5161 min
Histogram: 2 0 0 1 0 0 1 0 0 2
Nghost:    7770.17 ave 8018 max 7521 min
Histogram: 1 1 0 1 1 0 0 0 0 2
Neighs:    302641 ave 315371 max 288048 min
Histogram: 1 0 1 1 0 0 1 0 0 2
FullNghs: 605282 ave 631552 max 576705 min
Histogram: 1 1 0 1 0 0 1 0 0 2

Total # of neighbors = 3631692
Ave neighs/atom = 114.366
Ave special neighs/atom = 5.09986
Neighbor list builds = 100
Dangerous builds = 100
velocity all zero linear
WARNING: Use special bonds = 0,1,1 with bond style fene (bond_fene.cpp:189)
Memory usage per processor = 18.1281 Mbytes
Step sdpd_kin pTemp 
  138000 1.0241657e+09 1.0032429e+09 
  138100 1.027424e+09 1.0056647e+09 
  138200 1.0233238e+09 1.0012277e+09 
  138300 1.0237249e+09 1.002107e+09 
  138400 1.0199984e+09 9.9758407e+08 
  138500 1.0292059e+09 1.0067554e+09 
  138600 1.0243804e+09 1.001565e+09 
  138700 1.0223965e+09 9.9973904e+08 
  138800 1.0257404e+09 1.0033128e+09 
  138900 1.0227434e+09 9.9996735e+08 
  139000 1.0297783e+09 1.0070651e+09 
Loop time of 677.158 on 6 procs for 1000 steps with 31755 atoms

Pair  time (%) = 603.318 (89.0955)
Bond  time (%) = 0.784407 (0.115838)
Neigh time (%) = 5.14583 (0.759915)
Comm  time (%) = 29.9174 (4.41808)
Outpt time (%) = 2.08542 (0.307967)
Other time (%) = 35.9075 (5.30268)

Nlocal:    5292.5 ave 5442 max 5078 min
Histogram: 1 0 0 1 0 1 0 1 1 1
Nghost:    7775 ave 7983 max 7553 min
Histogram: 1 0 0 2 0 1 0 0 1 1
Neighs:    302274 ave 317001 max 276809 min
Histogram: 1 0 0 0 1 1 0 0 1 2
FullNghs: 604547 ave 633971 max 552385 min
Histogram: 1 0 0 0 0 2 0 0 1 2

Total # of neighbors = 3627282
Ave neighs/atom = 114.227
Ave special neighs/atom = 5.09986
Neighbor list builds = 100
Dangerous builds = 100
velocity all zero linear
WARNING: Use special bonds = 0,1,1 with bond style fene (bond_fene.cpp:189)
Memory usage per processor = 18.891 Mbytes
Step sdpd_kin pTemp 
  139000 1.0297781e+09 1.0070651e+09 
  139100 1.020473e+09 9.9795302e+08 
  139200 1.0212961e+09 9.9876564e+08 
  139300 1.0159006e+09 9.9310774e+08 
  139400 1.0274276e+09 1.0048568e+09 
  139500 1.0233506e+09 1.0004831e+09 
  139600 1.0328637e+09 1.0100003e+09 
  139700 1.0223093e+09 1.0001446e+09 
  139800 1.024653e+09 1.0026472e+09 
  139900 1.0174608e+09 9.9497427e+08 
  140000  1.02296e+09 1.0006124e+09 
Loop time of 672.811 on 6 procs for 1000 steps with 31755 atoms

Pair  time (%) = 600.67 (89.2777)
Bond  time (%) = 0.785126 (0.116693)
Neigh time (%) = 5.14974 (0.765406)
Comm  time (%) = 28.6887 (4.26401)
Outpt time (%) = 2.09724 (0.311713)
Other time (%) = 35.4201 (5.26449)

Nlocal:    5292.5 ave 5429 max 5087 min
Histogram: 1 0 0 0 1 1 0 1 1 1
Nghost:    7775.17 ave 7945 max 7567 min
Histogram: 1 0 1 0 1 0 0 1 1 1
Neighs:    302671 ave 314513 max 281323 min
Histogram: 1 0 0 0 0 2 0 0 1 2
FullNghs: 605343 ave 630244 max 563668 min
Histogram: 1 0 0 0 1 1 0 1 0 2

Total # of neighbors = 3632056
Ave neighs/atom = 114.377
Ave special neighs/atom = 5.09986
Neighbor list builds = 100
Dangerous builds = 99
velocity all zero linear
WARNING: Use special bonds = 0,1,1 with bond style fene (bond_fene.cpp:189)
Memory usage per processor = 18.891 Mbytes
Step sdpd_kin pTemp 
  140000 1.0229598e+09 1.0006124e+09 
  140100 1.0230974e+09 1.0008953e+09 
  140200 1.0168875e+09 9.9541671e+08 
  140300 1.0247841e+09 1.0029306e+09 
  140400 1.0236527e+09 1.0018265e+09 
  140500 1.0207271e+09 9.9843717e+08 
  140600 1.0318821e+09 1.0098579e+09 
  140700 1.0143505e+09 9.9194281e+08 
  140800 1.0276595e+09 1.0052026e+09 
  140900 1.0261238e+09 1.0037075e+09 
  141000 1.0186413e+09 9.9613349e+08 
Loop time of 672.923 on 6 procs for 1000 steps with 31755 atoms

Pair  time (%) = 600.581 (89.2495)
Bond  time (%) = 0.781546 (0.116142)
Neigh time (%) = 5.15214 (0.765635)
Comm  time (%) = 29.7321 (4.41835)
Outpt time (%) = 2.08695 (0.310132)
Other time (%) = 34.5901 (5.14027)

Nlocal:    5292.5 ave 5424 max 5148 min
Histogram: 1 0 0 2 0 1 0 0 0 2
Nghost:    7725.83 ave 7920 max 7497 min
Histogram: 1 1 0 0 1 0 1 0 0 2
Neighs:    302262 ave 316159 max 284740 min
Histogram: 1 0 0 1 1 1 0 0 0 2
FullNghs: 604524 ave 631979 max 570020 min
Histogram: 1 0 0 1 1 1 0 0 0 2

Total # of neighbors = 3627142
Ave neighs/atom = 114.223
Ave special neighs/atom = 5.09986
Neighbor list builds = 100
Dangerous builds = 100
velocity all zero linear
WARNING: Use special bonds = 0,1,1 with bond style fene (bond_fene.cpp:189)
Memory usage per processor = 18.891 Mbytes
Step sdpd_kin pTemp 
  141000 1.0186412e+09 9.9613349e+08 
  141100 1.0287035e+09 1.0057225e+09 
  141200 1.0231086e+09 1.0007545e+09 
  141300 1.0264738e+09 1.0033792e+09 
  141400 1.0249342e+09 1.0018527e+09 
  141500 1.0319304e+09 1.0090295e+09 
  141600 1.0202515e+09 9.9752298e+08 
  141700 1.0245224e+09 1.0016273e+09 
  141800 1.0294066e+09 1.0063817e+09 
  141900 1.0253965e+09 1.0026778e+09 
  142000 1.0273931e+09 1.0043458e+09 
Loop time of 682.053 on 6 procs for 1000 steps with 31755 atoms

Pair  time (%) = 602.359 (88.3156)
Bond  time (%) = 0.781925 (0.114643)
Neigh time (%) = 5.14202 (0.753903)
Comm  time (%) = 37.6587 (5.52137)
Outpt time (%) = 2.08348 (0.305472)
Other time (%) = 34.0278 (4.98903)

Nlocal:    5292.5 ave 5487 max 5112 min
Histogram: 1 1 0 0 1 1 1 0 0 1
Nghost:    7688.83 ave 7864 max 7531 min
Histogram: 2 0 0 0 2 0 0 0 0 2
Neighs:    303298 ave 322593 max 287194 min
Histogram: 1 0 1 1 1 0 1 0 0 1
FullNghs: 606597 ave 645593 max 574992 min
Histogram: 1 1 0 1 1 0 1 0 0 1

Total # of neighbors = 3639582
Ave neighs/atom = 114.614
Ave special neighs/atom = 5.09986
Neighbor list builds = 100
Dangerous builds = 100
velocity all zero linear
WARNING: Use special bonds = 0,1,1 with bond style fene (bond_fene.cpp:189)
Memory usage per processor = 18.891 Mbytes
Step sdpd_kin pTemp 
  142000 1.0273926e+09 1.0043458e+09 
  142100 1.027893e+09 1.0051203e+09 
  142200 1.0218577e+09 9.9866106e+08 
  142300 1.0247945e+09 1.0019634e+09 
  142400 1.0241908e+09 1.0017311e+09 
  142500 1.0254679e+09 1.0030002e+09 
  142600 1.0144016e+09 9.9184728e+08 
  142700 1.0299941e+09 1.0071371e+09 
  142800 1.0197538e+09 9.9704999e+08 
  142900 1.0239284e+09 1.0012565e+09 
  143000 1.0261145e+09 1.0034536e+09 
Loop time of 682.726 on 6 procs for 1000 steps with 31755 atoms

Pair  time (%) = 601.75 (88.1394)
Bond  time (%) = 0.777347 (0.113859)
Neigh time (%) = 5.15295 (0.754761)
Comm  time (%) = 38.5441 (5.64561)
Outpt time (%) = 2.09998 (0.307587)
Other time (%) = 34.4013 (5.03881)

Nlocal:    5292.5 ave 5441 max 5172 min
Histogram: 2 0 0 0 1 1 1 0 0 1
Nghost:    7815.17 ave 7919 max 7595 min
Histogram: 1 0 0 0 1 0 0 1 0 3
Neighs:    302866 ave 317836 max 289509 min
Histogram: 1 1 0 0 1 1 1 0 0 1
FullNghs: 605731 ave 637154 max 579925 min
Histogram: 2 0 0 0 1 1 1 0 0 1

Total # of neighbors = 3634386
Ave neighs/atom = 114.451
Ave special neighs/atom = 5.09986
Neighbor list builds = 100
Dangerous builds = 100
velocity all zero linear
WARNING: Use special bonds = 0,1,1 with bond style fene (bond_fene.cpp:189)
Memory usage per processor = 18.891 Mbytes
Step sdpd_kin pTemp 
  143000 1.0261142e+09 1.0034536e+09 
  143100 1.0269138e+09 1.0047645e+09 
  143200 1.0298142e+09 1.0072103e+09 
  143300 1.0244074e+09 1.0023397e+09 
  143400 1.0244478e+09 1.002401e+09 
  143500 1.0177615e+09 9.9613942e+08 
  143600 1.0257263e+09 1.0040023e+09 
  143700 1.0284893e+09 1.0066311e+09 
  143800 1.0215085e+09 9.9948319e+08 
  143900 1.0267872e+09 1.0055816e+09 
  144000 1.0245308e+09 1.0034972e+09 
Loop time of 678.641 on 6 procs for 1000 steps with 31755 atoms

Pair  time (%) = 602.539 (88.7862)
Bond  time (%) = 0.783039 (0.115383)
Neigh time (%) = 5.14653 (0.758358)
Comm  time (%) = 34.0846 (5.02249)
Outpt time (%) = 2.09955 (0.309376)
Other time (%) = 33.9876 (5.00819)

Nlocal:    5292.5 ave 5380 max 5192 min
Histogram: 2 0 0 0 0 0 2 0 1 1
Nghost:    7731.33 ave 8061 max 7478 min
Histogram: 1 1 0 1 1 0 0 1 0 1
Neighs:    302521 ave 313186 max 292303 min
Histogram: 1 0 2 0 0 1 0 0 0 2
FullNghs: 605042 ave 625611 max 583855 min
Histogram: 1 0 1 1 0 1 0 0 0 2

Total # of neighbors = 3630250
Ave neighs/atom = 114.321
Ave special neighs/atom = 5.09986
Neighbor list builds = 100
Dangerous builds = 100
velocity all zero linear
WARNING: Use special bonds = 0,1,1 with bond style fene (bond_fene.cpp:189)
Memory usage per processor = 18.891 Mbytes
Step sdpd_kin pTemp 
  144000 1.0245307e+09 1.0034972e+09 
  144100 1.0217137e+09 1.0009677e+09 
  144200 1.0217714e+09 1.0016472e+09 
  144300 1.026375e+09 1.0058125e+09 
  144400 1.0190204e+09 9.9894652e+08 
  144500 1.0246918e+09 1.0045679e+09 
  144600 1.0212647e+09 1.0014514e+09 
  144700 1.0157954e+09 9.9548628e+08 
  144800 1.0201333e+09 9.9971204e+08 
  144900 1.0198273e+09 9.9890382e+08 
  145000 1.0185115e+09 9.9806264e+08 
Loop time of 666.78 on 6 procs for 1000 steps with 31755 atoms

Pair  time (%) = 600.199 (90.0145)
Bond  time (%) = 0.780995 (0.117129)
Neigh time (%) = 5.14494 (0.77161)
Comm  time (%) = 25.0866 (3.76235)
Outpt time (%) = 2.10963 (0.316391)
Other time (%) = 33.4594 (5.01805)

Nlocal:    5292.5 ave 5412 max 5188 min
Histogram: 1 0 1 0 1 1 1 0 0 1
Nghost:    7838.33 ave 8152 max 7651 min
Histogram: 3 0 0 0 0 1 1 0 0 1
Neighs:    302013 ave 314811 max 291448 min
Histogram: 1 0 0 2 0 2 0 0 0 1
FullNghs: 604025 ave 628060 max 582911 min
Histogram: 1 0 0 2 0 2 0 0 0 1

Total # of neighbors = 3624152
Ave neighs/atom = 114.129
Ave special neighs/atom = 5.09986
Neighbor list builds = 100
Dangerous builds = 100
velocity all zero linear
WARNING: Use special bonds = 0,1,1 with bond style fene (bond_fene.cpp:189)
Memory usage per processor = 18.891 Mbytes
Step sdpd_kin pTemp 
  145000 1.0185115e+09 9.9806264e+08 
  145100 1.0238085e+09 1.003678e+09 
  145200 1.0337783e+09 1.0137638e+09 
  145300 1.0224902e+09 1.0024006e+09 
  145400 1.0247632e+09 1.0044941e+09 
  145500 1.023842e+09 1.002963e+09 
  145600 1.0254524e+09 1.0049153e+09 
  145700 1.0262207e+09 1.0056829e+09 
  145800 1.0221957e+09 1.0014148e+09 
  145900 1.0255242e+09 1.0045606e+09 
  146000 1.0201814e+09 9.9909589e+08 
Loop time of 664.99 on 6 procs for 1000 steps with 31755 atoms

Pair  time (%) = 600.802 (90.3476)
Bond  time (%) = 0.783502 (0.117822)
Neigh time (%) = 5.15558 (0.775287)
Comm  time (%) = 22.32 (3.35644)
Outpt time (%) = 2.10955 (0.31723)
Other time (%) = 33.8191 (5.08566)

Nlocal:    5292.5 ave 5361 max 5181 min
Histogram: 1 0 1 0 0 0 1 0 1 2
Nghost:    7751.33 ave 7806 max 7703 min
Histogram: 1 1 0 0 1 1 1 0 0 1
Neighs:    303092 ave 312406 max 290858 min
Histogram: 1 0 0 1 1 0 0 1 1 1
FullNghs: 606184 ave 623446 max 581632 min
Histogram: 1 0 0 1 1 0 0 1 0 2

Total # of neighbors = 3637106
Ave neighs/atom = 114.536
Ave special neighs/atom = 5.09986
Neighbor list builds = 100
Dangerous builds = 100
velocity all zero linear
WARNING: Use special bonds = 0,1,1 with bond style fene (bond_fene.cpp:189)
Memory usage per processor = 18.891 Mbytes
Step sdpd_kin pTemp 
  146000 1.0201813e+09 9.9909589e+08 
  146100 1.0308615e+09 1.0097116e+09 
  146200 1.0287452e+09 1.0079007e+09 
  146300 1.0268372e+09 1.0063489e+09 
  146400 1.0190834e+09 9.9919935e+08 
  146500 1.0262959e+09 1.005402e+09 
  146600 1.0285957e+09 1.0078435e+09 
  146700 1.0253647e+09 1.0043373e+09 
  146800 1.0251167e+09 1.004155e+09 
  146900 1.0243182e+09 1.0030367e+09 
  147000 1.0271394e+09 1.0060821e+09 
Loop time of 670.056 on 6 procs for 1000 steps with 31755 atoms

Pair  time (%) = 603.328 (90.0415)
Bond  time (%) = 0.782918 (0.116844)
Neigh time (%) = 5.17265 (0.771972)
Comm  time (%) = 24.5525 (3.66424)
Outpt time (%) = 2.09638 (0.312866)
Other time (%) = 34.1234 (5.09262)

Nlocal:    5292.5 ave 5380 max 5098 min
Histogram: 1 0 0 0 0 0 1 1 1 2
Nghost:    7734.83 ave 7935 max 7603 min
Histogram: 2 0 1 1 0 0 0 1 0 1
Neighs:    303996 ave 313260 max 287339 min
Histogram: 1 0 0 0 0 1 0 2 1 1
FullNghs: 607993 ave 625601 max 573307 min
Histogram: 1 0 0 0 0 1 0 2 0 2

Total # of neighbors = 3647956
Ave neighs/atom = 114.878
Ave special neighs/atom = 5.09986
Neighbor list builds = 100
Dangerous builds = 100
velocity all zero linear
WARNING: Use special bonds = 0,1,1 with bond style fene (bond_fene.cpp:189)
Memory usage per processor = 18.891 Mbytes
Step sdpd_kin pTemp 
  147000 1.0271393e+09 1.0060821e+09 
  147100 1.0321921e+09 1.0107938e+09 
  147200 1.0214181e+09 1.0001545e+09 
  147300 1.0332135e+09 1.0118977e+09 
  147400 1.0189151e+09 9.9750399e+08 
  147500 1.0247811e+09 1.0031863e+09 
  147600 1.0276993e+09 1.0062674e+09 
  147700 1.0234934e+09 1.0025744e+09 
  147800 1.0296391e+09 1.008403e+09 
  147900 1.0271107e+09 1.0056725e+09 
  148000 1.0275266e+09 1.0060736e+09 
Loop time of 670.798 on 6 procs for 1000 steps with 31755 atoms

Pair  time (%) = 602.813 (89.8651)
Bond  time (%) = 0.784132 (0.116895)
Neigh time (%) = 5.14602 (0.767149)
Comm  time (%) = 26.683 (3.9778)
Outpt time (%) = 2.10775 (0.314215)
Other time (%) = 33.2642 (4.95889)

Nlocal:    5292.5 ave 5405 max 5145 min
Histogram: 1 0 1 0 0 1 1 0 0 2
Nghost:    7699.17 ave 7839 max 7432 min
Histogram: 1 0 0 0 1 0 1 0 1 2
Neighs:    303710 ave 315793 max 290093 min
Histogram: 1 0 1 0 1 1 0 0 1 1
FullNghs: 607419 ave 632778 max 581165 min
Histogram: 1 0 1 0 1 1 0 0 1 1

Total # of neighbors = 3644514
Ave neighs/atom = 114.77
Ave special neighs/atom = 5.09986
Neighbor list builds = 100
Dangerous builds = 100
velocity all zero linear
WARNING: Use special bonds = 0,1,1 with bond style fene (bond_fene.cpp:189)
Memory usage per processor = 18.891 Mbytes
Step sdpd_kin pTemp 
  148000 1.0275263e+09 1.0060736e+09 
  148100 1.0242608e+09 1.0028318e+09 
  148200 1.0271959e+09 1.0060149e+09 
  148300 1.0305506e+09 1.0091614e+09 
  148400 1.0241759e+09 1.0030439e+09 
  148500 1.0233427e+09 1.0026132e+09 
  148600 1.0229062e+09 1.0017604e+09 
  148700 1.0161909e+09 9.9507634e+08 
  148800 1.0234273e+09 1.0024591e+09 
  148900 1.0260257e+09 1.0048272e+09 
  149000 1.0200384e+09 9.9907996e+08 
Loop time of 664.07 on 6 procs for 1000 steps with 31755 atoms

Pair  time (%) = 604.404 (91.0151)
Bond  time (%) = 0.782635 (0.117854)
Neigh time (%) = 5.15311 (0.775988)
Comm  time (%) = 18.5017 (2.78611)
Outpt time (%) = 2.10403 (0.316838)
Other time (%) = 33.1248 (4.98814)

Nlocal:    5292.5 ave 5347 max 5230 min
Histogram: 1 0 0 2 0 0 1 0 1 1
Nghost:    7714.33 ave 7960 max 7483 min
Histogram: 1 1 0 1 0 0 1 1 0 1
Neighs:    304198 ave 308664 max 298919 min
Histogram: 1 0 1 1 0 0 1 0 0 2
FullNghs: 608397 ave 619935 max 597503 min
Histogram: 1 1 0 1 0 0 1 1 0 1

Total # of neighbors = 3650380
Ave neighs/atom = 114.954
Ave special neighs/atom = 5.09986
Neighbor list builds = 100
Dangerous builds = 100
velocity all zero linear
WARNING: Use special bonds = 0,1,1 with bond style fene (bond_fene.cpp:189)
Memory usage per processor = 18.891 Mbytes
Step sdpd_kin pTemp 
  149000 1.020038e+09 9.9907996e+08 
  149100 1.0209715e+09 9.9988019e+08 
  149200 1.027773e+09 1.0063905e+09 
  149300 1.0231365e+09 1.0022739e+09 
  149400 1.0188707e+09 9.9803616e+08 
  149500 1.0187096e+09 9.9793492e+08 
  149600 1.0231578e+09 1.0023185e+09 
  149700 1.0217906e+09 1.0007314e+09 
  149800 1.0240389e+09 1.0029751e+09 
  149900 1.0182298e+09 9.9725024e+08 
  150000 1.0292733e+09 1.0085023e+09 
Loop time of 667.216 on 6 procs for 1000 steps with 31755 atoms

Pair  time (%) = 604.735 (90.6355)
Bond  time (%) = 0.78352 (0.117431)
Neigh time (%) = 5.16545 (0.774179)
Comm  time (%) = 20.5065 (3.07343)
Outpt time (%) = 2.11619 (0.317168)
Other time (%) = 33.91 (5.08231)

Nlocal:    5292.5 ave 5384 max 5201 min
Histogram: 2 1 0 0 0 0 0 0 1 2
Nghost:    7814.83 ave 8160 max 7547 min
Histogram: 1 0 2 0 1 0 0 1 0 1
Neighs:    303504 ave 314563 max 293769 min
Histogram: 2 0 0 1 0 1 0 0 1 1
FullNghs: 607008 ave 628555 max 587550 min
Histogram: 1 1 0 1 0 1 0 0 1 1

Total # of neighbors = 3642050
Ave neighs/atom = 114.692
Ave special neighs/atom = 5.09986
Neighbor list builds = 100
Dangerous builds = 99
velocity all zero linear
WARNING: Use special bonds = 0,1,1 with bond style fene (bond_fene.cpp:189)
Memory usage per processor = 18.891 Mbytes
Step sdpd_kin pTemp 
  150000 1.0292732e+09 1.0085023e+09 
  150100 1.0291691e+09 1.0080549e+09 
  150200 1.0282646e+09 1.006939e+09 
  150300 1.0354436e+09 1.0138819e+09 
  150400 1.0290723e+09 1.0069551e+09 
  150500 1.0151837e+09 9.9346522e+08 
  150600 1.0279085e+09 1.0060218e+09 
  150700 1.0326077e+09 1.0105013e+09 
  150800 1.0259038e+09 1.003909e+09 
  150900 1.0277346e+09 1.0059654e+09 
  151000 1.0233225e+09 1.0012944e+09 
Loop time of 676.467 on 6 procs for 1000 steps with 31755 atoms

Pair  time (%) = 602.589 (89.0787)
Bond  time (%) = 0.783886 (0.115879)
Neigh time (%) = 5.16062 (0.762878)
Comm  time (%) = 32.084 (4.74288)
Outpt time (%) = 2.09469 (0.309652)
Other time (%) = 33.7555 (4.98997)

Nlocal:    5292.5 ave 5442 max 5162 min
Histogram: 1 0 0 3 0 0 0 0 1 1
Nghost:    7787.67 ave 7923 max 7631 min
Histogram: 1 1 0 1 0 0 0 1 1 1
Neighs:    302430 ave 317186 max 290374 min
Histogram: 1 1 2 0 0 0 0 0 0 2
FullNghs: 604860 ave 636076 max 579142 min
Histogram: 1 0 3 0 0 0 0 0 0 2

Total # of neighbors = 3629160
Ave neighs/atom = 114.286
Ave special neighs/atom = 5.09986
Neighbor list builds = 100
Dangerous builds = 100
velocity all zero linear
WARNING: Use special bonds = 0,1,1 with bond style fene (bond_fene.cpp:189)
Memory usage per processor = 18.891 Mbytes
Step sdpd_kin pTemp 
  151000 1.0233224e+09 1.0012944e+09 
  151100 1.0226256e+09 1.0001094e+09 
  151200 1.0277977e+09 1.0056066e+09 
  151300 1.0157001e+09 9.9372233e+08 
  151400 1.0272945e+09 1.0051705e+09 
  151500 1.0207386e+09 9.9807962e+08 
  151600 1.0289355e+09 1.0063318e+09 
  151700 1.0247756e+09 1.0021394e+09 
  151800 1.0190075e+09 9.969024e+08 
  151900 1.0264482e+09 1.0048478e+09 
  152000 1.0322684e+09 1.0102521e+09 
Loop time of 681.103 on 6 procs for 1000 steps with 31755 atoms

Pair  time (%) = 601.615 (88.3295)
Bond  time (%) = 0.783533 (0.115039)
Neigh time (%) = 5.17693 (0.76008)
Comm  time (%) = 37.0338 (5.43733)
Outpt time (%) = 2.08905 (0.306716)
Other time (%) = 34.4045 (5.0513)

Nlocal:    5292.5 ave 5398 max 5181 min
Histogram: 1 1 0 0 1 0 0 2 0 1
Nghost:    7774.67 ave 7889 max 7659 min
Histogram: 1 1 0 0 1 1 0 0 0 2
Neighs:    303022 ave 318099 max 292474 min
Histogram: 2 0 0 1 1 1 0 0 0 1
FullNghs: 606044 ave 635739 max 583733 min
Histogram: 1 1 0 0 2 1 0 0 0 1

Total # of neighbors = 3636262
Ave neighs/atom = 114.51
Ave special neighs/atom = 5.09986
Neighbor list builds = 100
Dangerous builds = 100
velocity all zero linear
WARNING: Use special bonds = 0,1,1 with bond style fene (bond_fene.cpp:189)
Memory usage per processor = 18.891 Mbytes
Step sdpd_kin pTemp 
  152000 1.0322683e+09 1.0102521e+09 
  152100 1.017794e+09 9.9603874e+08 
  152200 1.0228044e+09 1.0001691e+09 
  152300 1.0142595e+09 9.9211493e+08 
  152400 1.0236507e+09 1.0014408e+09 
  152500 1.0238513e+09 1.0011577e+09 
  152600 1.0330524e+09 1.0103847e+09 
  152700 1.0300046e+09 1.0074613e+09 
  152800 1.0276966e+09 1.0050209e+09 
  152900 1.0226192e+09 9.9955528e+08 
  153000 1.0182567e+09 9.950827e+08 
Loop time of 676.279 on 6 procs for 1000 steps with 31755 atoms

Pair  time (%) = 602.737 (89.1255)
Bond  time (%) = 0.800664 (0.118393)
Neigh time (%) = 5.17777 (0.765626)
Comm  time (%) = 31.2863 (4.62625)
Outpt time (%) = 2.10553 (0.31134)
Other time (%) = 34.1719 (5.05293)

Nlocal:    5292.5 ave 5367 max 5207 min
Histogram: 1 0 1 1 0 0 1 0 0 2
Nghost:    7782.83 ave 7846 max 7714 min
Histogram: 2 0 0 0 0 2 0 0 0 2
Neighs:    302858 ave 311940 max 293680 min
Histogram: 1 1 1 0 0 0 1 0 1 1
FullNghs: 605716 ave 625241 max 585998 min
Histogram: 1 0 2 0 0 0 1 0 1 1

Total # of neighbors = 3634296
Ave neighs/atom = 114.448
Ave special neighs/atom = 5.09986
Neighbor list builds = 100
Dangerous builds = 100
velocity all zero linear
WARNING: Use special bonds = 0,1,1 with bond style fene (bond_fene.cpp:189)
Memory usage per processor = 18.891 Mbytes
Step sdpd_kin pTemp 
  153000 1.0182566e+09 9.950827e+08 
  153100 1.0294609e+09 1.0065896e+09 
  153200 1.0263672e+09 1.0035079e+09 
  153300 1.0120286e+09 9.8948857e+08 
  153400 1.0240173e+09 1.0013721e+09 
  153500 1.0327878e+09 1.0102366e+09 
  153600 1.0302273e+09 1.0079707e+09 
  153700 1.0274203e+09 1.0047756e+09 
  153800 1.0261851e+09 1.0038822e+09 
  153900 1.0282083e+09 1.0058014e+09 
  154000 1.0257147e+09 1.003506e+09 
Loop time of 666.34 on 6 procs for 1000 steps with 31755 atoms

Pair  time (%) = 602.595 (90.4335)
Bond  time (%) = 0.783604 (0.117598)
Neigh time (%) = 5.15137 (0.773085)
Comm  time (%) = 21.1072 (3.16762)
Outpt time (%) = 2.0983 (0.314898)
Other time (%) = 34.605 (5.19329)

Nlocal:    5292.5 ave 5401 max 5081 min
Histogram: 1 0 0 0 0 0 2 0 2 1
Nghost:    7796.5 ave 8155 max 7640 min
Histogram: 1 2 2 0 0 0 0 0 0 1
Neighs:    301956 ave 311508 max 279028 min
Histogram: 1 0 0 0 0 0 0 2 2 1
FullNghs: 603913 ave 624482 max 559434 min
Histogram: 1 0 0 0 0 0 0 3 1 1

Total # of neighbors = 3623476
Ave neighs/atom = 114.107
Ave special neighs/atom = 5.09986
Neighbor list builds = 100
Dangerous builds = 100
velocity all zero linear
WARNING: Use special bonds = 0,1,1 with bond style fene (bond_fene.cpp:189)
Memory usage per processor = 18.891 Mbytes
Step sdpd_kin pTemp 
  154000 1.0257146e+09 1.003506e+09 
  154100 1.0291261e+09 1.0070933e+09 
  154200 1.0208144e+09 9.980987e+08 
  154300 1.019974e+09 9.975389e+08 
  154400 1.0237686e+09 1.0012926e+09 
  154500 1.0187205e+09 9.964333e+08 
  154600 1.0227937e+09 1.0003935e+09 
  154700 1.0253808e+09 1.0024635e+09 
  154800 1.0186982e+09 9.9578815e+08 
  154900 1.0247988e+09 1.0021885e+09 
  155000 1.0291395e+09 1.0068663e+09 
Loop time of 672.423 on 6 procs for 1000 steps with 31755 atoms

Pair  time (%) = 600.85 (89.356)
Bond  time (%) = 0.779073 (0.115861)
Neigh time (%) = 5.15021 (0.765919)
Comm  time (%) = 29.5953 (4.4013)
Outpt time (%) = 2.09437 (0.311466)
Other time (%) = 33.9537 (5.04946)

Nlocal:    5292.5 ave 5512 max 5148 min
Histogram: 1 1 1 1 0 0 1 0 0 1
Nghost:    7697.17 ave 7857 max 7517 min
Histogram: 1 1 0 0 1 0 1 0 0 2
Neighs:    302123 ave 321606 max 288328 min
Histogram: 1 1 1 1 0 0 0 1 0 1
FullNghs: 604246 ave 642854 max 574928 min
Histogram: 1 1 1 1 0 0 0 1 0 1

Total # of neighbors = 3625476
Ave neighs/atom = 114.17
Ave special neighs/atom = 5.09986
Neighbor list builds = 100
Dangerous builds = 100
velocity all zero linear
WARNING: Use special bonds = 0,1,1 with bond style fene (bond_fene.cpp:189)
Memory usage per processor = 18.891 Mbytes
Step sdpd_kin pTemp 
  155000 1.0291393e+09 1.0068663e+09 
  155100 1.0249223e+09 1.002582e+09 
  155200 1.0297861e+09 1.0077102e+09 
  155300 1.0317727e+09 1.0099149e+09 
  155400 1.034743e+09 1.0130745e+09 
  155500 1.0285394e+09 1.007021e+09 
  155600 1.0250106e+09 1.0038102e+09 
  155700 1.0247313e+09 1.0033106e+09 
  155800 1.0237828e+09 1.0026704e+09 
  155900 1.0121545e+09 9.913388e+08 
  156000 1.0249732e+09 1.0040523e+09 
Loop time of 676.021 on 6 procs for 1000 steps with 31755 atoms

Pair  time (%) = 604.917 (89.4821)
Bond  time (%) = 0.781254 (0.115567)
Neigh time (%) = 5.14527 (0.761112)
Comm  time (%) = 31.1898 (4.61373)
Outpt time (%) = 2.10316 (0.311109)
Other time (%) = 31.8838 (4.7164)

Nlocal:    5292.5 ave 5424 max 5116 min
Histogram: 1 0 1 0 0 1 0 1 0 2
Nghost:    7801.33 ave 8008 max 7560 min
Histogram: 2 0 0 0 0 0 2 0 1 1
Neighs:    303848 ave 316744 max 286427 min
Histogram: 1 0 1 0 1 0 0 0 1 2
FullNghs: 607695 ave 634583 max 572564 min
Histogram: 1 0 1 0 1 0 0 0 1 2

Total # of neighbors = 3646172
Ave neighs/atom = 114.822
Ave special neighs/atom = 5.09986
Neighbor list builds = 100
Dangerous builds = 100
velocity all zero linear
WARNING: Use special bonds = 0,1,1 with bond style fene (bond_fene.cpp:189)
Memory usage per processor = 18.891 Mbytes
Step sdpd_kin pTemp 
  156000 1.0249728e+09 1.0040523e+09 
  156100 1.0220194e+09 1.0014534e+09 
  156200 1.0298236e+09 1.0090132e+09 
  156300 1.0228754e+09 1.0024555e+09 
  156400 1.0237504e+09 1.0035826e+09 
  156500 1.0204221e+09 1.0004177e+09 
  156600 1.0191216e+09 9.9918104e+08 
  156700 1.0264282e+09 1.0062928e+09 
  156800 1.0239376e+09 1.0036507e+09 
  156900 1.0225175e+09 1.0020649e+09 
  157000 1.0236461e+09 1.002838e+09 
Loop time of 670.716 on 6 procs for 1000 steps with 31755 atoms

Pair  time (%) = 601.458 (89.674)
Bond  time (%) = 0.784678 (0.116991)
Neigh time (%) = 5.14473 (0.76705)
Comm  time (%) = 27.7062 (4.13084)
Outpt time (%) = 2.08628 (0.311053)
Other time (%) = 33.5361 (5.00004)

Nlocal:    5292.5 ave 5417 max 5053 min
Histogram: 1 0 0 0 0 1 1 0 2 1
Nghost:    7684.33 ave 7854 max 7402 min
Histogram: 1 0 0 0 1 0 1 1 0 2
Neighs:    302415 ave 316448 max 280649 min
Histogram: 1 0 0 0 1 0 1 0 2 1
FullNghs: 604829 ave 632813 max 561341 min
Histogram: 1 0 0 0 1 1 0 0 2 1

Total # of neighbors = 3628976
Ave neighs/atom = 114.28
Ave special neighs/atom = 5.09986
Neighbor list builds = 100
Dangerous builds = 100
velocity all zero linear
WARNING: Use special bonds = 0,1,1 with bond style fene (bond_fene.cpp:189)
Memory usage per processor = 18.891 Mbytes
Step sdpd_kin pTemp 
  157000 1.0236457e+09 1.002838e+09 
  157100 1.0267954e+09 1.0060617e+09 
  157200 1.020194e+09 9.9979823e+08 
  157300 1.0223777e+09 1.0014881e+09 
  157400 1.0183729e+09 9.9717954e+08 
  157500 1.0210974e+09 1.0000242e+09 
  157600 1.0277507e+09 1.0069235e+09 
  157700 1.0198908e+09 9.9893452e+08 
  157800 1.0251025e+09 1.0040116e+09 
  157900 1.0232899e+09 1.0020151e+09 
  158000 1.018629e+09 9.9737584e+08 
Loop time of 675.88 on 6 procs for 1000 steps with 31755 atoms

Pair  time (%) = 599.543 (88.7056)
Bond  time (%) = 0.785667 (0.116244)
Neigh time (%) = 5.14428 (0.761123)
Comm  time (%) = 35.3546 (5.2309)
Outpt time (%) = 2.09007 (0.309237)
Other time (%) = 32.9623 (4.87694)

Nlocal:    5292.5 ave 5497 max 5062 min
Histogram: 1 0 0 0 1 2 1 0 0 1
Nghost:    7788.83 ave 8041 max 7523 min
Histogram: 1 0 0 0 3 0 0 1 0 1
Neighs:    301855 ave 319736 max 279687 min
Histogram: 1 0 0 0 0 3 0 1 0 1
FullNghs: 603709 ave 641677 max 560032 min
Histogram: 1 0 0 0 1 2 1 0 0 1

Total # of neighbors = 3622256
Ave neighs/atom = 114.069
Ave special neighs/atom = 5.09986
Neighbor list builds = 100
Dangerous builds = 100
velocity all zero linear
WARNING: Use special bonds = 0,1,1 with bond style fene (bond_fene.cpp:189)
Memory usage per processor = 18.891 Mbytes
Step sdpd_kin pTemp 
  158000 1.0186282e+09 9.9737584e+08 
  158100 1.0262753e+09 1.0048885e+09 
  158200 1.0279233e+09 1.0062058e+09 
  158300 1.0169183e+09 9.9552123e+08 
  158400 1.0278879e+09 1.0068783e+09 
  158500 1.0306154e+09 1.009247e+09 
  158600 1.0291764e+09 1.0078642e+09 
  158700 1.0195668e+09 9.9798741e+08 
  158800 1.0266744e+09 1.0053255e+09 
  158900 1.0280394e+09 1.0069118e+09 
  159000 1.0339971e+09 1.0128239e+09 
Loop time of 667.936 on 6 procs for 1000 steps with 31755 atoms

Pair  time (%) = 600.423 (89.8922)
Bond  time (%) = 0.776678 (0.11628)
Neigh time (%) = 5.12532 (0.767337)
Comm  time (%) = 26.4058 (3.95334)
Outpt time (%) = 2.09547 (0.313723)
Other time (%) = 33.1105 (4.95713)

Nlocal:    5292.5 ave 5458 max 5122 min
Histogram: 1 1 0 0 0 1 2 0 0 1
Nghost:    7717.67 ave 7840 max 7647 min
Histogram: 2 0 1 1 0 1 0 0 0 1
Neighs:    302306 ave 317329 max 286330 min
Histogram: 1 0 1 0 0 2 0 1 0 1
FullNghs: 604612 ave 633201 max 575637 min
Histogram: 1 1 0 0 0 2 0 1 0 1

Total # of neighbors = 3627670
Ave neighs/atom = 114.239
Ave special neighs/atom = 5.09986
Neighbor list builds = 100
Dangerous builds = 100
velocity all zero linear
WARNING: Use special bonds = 0,1,1 with bond style fene (bond_fene.cpp:189)
Memory usage per processor = 18.891 Mbytes
Step sdpd_kin pTemp 
  159000 1.0339965e+09 1.0128239e+09 
  159100 1.0230114e+09 1.0020343e+09 
  159200 1.0206097e+09 9.9969345e+08 
  159300 1.0226627e+09 1.0019692e+09 
  159400 1.0277922e+09 1.0073528e+09 
  159500 1.0197658e+09 9.991126e+08 
  159600 1.0259794e+09 1.0056174e+09 
  159700 1.0234514e+09 1.0026007e+09 
  159800 1.0262681e+09 1.0052508e+09 
  159900 1.0211498e+09 1.0003431e+09 
  160000 1.0267792e+09 1.0055148e+09 
Loop time of 669.396 on 6 procs for 1000 steps with 31755 atoms

Pair  time (%) = 602.705 (90.0372)
Bond  time (%) = 0.784477 (0.117192)
Neigh time (%) = 5.14284 (0.76828)
Comm  time (%) = 25.063 (3.74413)
Outpt time (%) = 2.11641 (0.316168)
Other time (%) = 33.5836 (5.017)

Nlocal:    5292.5 ave 5405 max 5149 min
Histogram: 1 0 0 1 0 1 0 2 0 1
Nghost:    7873 ave 8000 max 7758 min
Histogram: 2 0 0 1 0 0 1 0 1 1
Neighs:    302167 ave 312469 max 289123 min
Histogram: 1 0 1 0 0 1 0 1 1 1
FullNghs: 604334 ave 623917 max 577623 min
Histogram: 1 0 1 0 0 1 0 1 0 2

Total # of neighbors = 3626002
Ave neighs/atom = 114.187
Ave special neighs/atom = 5.09986
Neighbor list builds = 100
Dangerous builds = 99
velocity all zero linear
WARNING: Use special bonds = 0,1,1 with bond style fene (bond_fene.cpp:189)
Memory usage per processor = 18.891 Mbytes
Step sdpd_kin pTemp 
  160000 1.0267786e+09 1.0055148e+09 
  160100 1.0242369e+09 1.0024126e+09 
  160200 1.0178113e+09 9.9630157e+08 
  160300 1.0348031e+09 1.0134556e+09 
  160400 1.0325025e+09 1.0111587e+09 
  160500 1.0225232e+09 1.0014142e+09 
  160600 1.028084e+09 1.006756e+09 
  160700 1.0239179e+09 1.0024937e+09 
  160800 1.0174257e+09 9.9567044e+08 
  160900 1.0255064e+09 1.0039305e+09 
  161000 1.0294595e+09 1.007842e+09 
Loop time of 665.408 on 6 procs for 1000 steps with 31755 atoms

Pair  time (%) = 601.255 (90.3589)
Bond  time (%) = 0.793519 (0.119253)
Neigh time (%) = 5.15909 (0.775327)
Comm  time (%) = 22.5785 (3.39319)
Outpt time (%) = 2.09577 (0.31496)
Other time (%) = 33.5259 (5.0384)

Nlocal:    5292.5 ave 5422 max 5213 min
Histogram: 2 1 0 1 0 0 0 1 0 1
Nghost:    7958.33 ave 8213 max 7728 min
Histogram: 1 0 0 0 3 1 0 0 0 1
Neighs:    301920 ave 313956 max 289250 min
Histogram: 1 1 0 0 0 2 0 0 1 1
FullNghs: 603840 ave 628941 max 579091 min
Histogram: 2 0 0 0 0 2 0 1 0 1

Total # of neighbors = 3623042
Ave neighs/atom = 114.094
Ave special neighs/atom = 5.09986
Neighbor list builds = 100
Dangerous builds = 100
velocity all zero linear
WARNING: Use special bonds = 0,1,1 with bond style fene (bond_fene.cpp:189)
Memory usage per processor = 18.891 Mbytes
Step sdpd_kin pTemp 
  161000 1.0294589e+09 1.007842e+09 
  161100 1.0256634e+09 1.004218e+09 
  161200 1.0300256e+09 1.0090648e+09 
  161300 1.0235763e+09 1.0023933e+09 
  161400 1.0263873e+09 1.0045823e+09 
  161500 1.0264675e+09 1.0043505e+09 
  161600 1.0260545e+09 1.0044642e+09 
  161700 1.0262567e+09 1.0047997e+09 
  161800 1.026062e+09 1.0042553e+09 
  161900 1.0283703e+09 1.0070235e+09 
  162000 1.0185166e+09 9.9701443e+08 
Loop time of 665.738 on 6 procs for 1000 steps with 31755 atoms

Pair  time (%) = 600.602 (90.216)
Bond  time (%) = 0.782209 (0.117495)
Neigh time (%) = 5.14243 (0.772439)
Comm  time (%) = 24.2505 (3.64265)
Outpt time (%) = 2.09076 (0.314051)
Other time (%) = 32.8701 (4.9374)

Nlocal:    5292.5 ave 5440 max 5135 min
Histogram: 1 0 0 2 0 0 1 1 0 1
Nghost:    7836.17 ave 7969 max 7567 min
Histogram: 1 0 0 0 0 1 0 2 0 2
Neighs:    301804 ave 316843 max 286271 min
Histogram: 1 0 0 2 0 1 0 1 0 1
FullNghs: 603609 ave 633993 max 572418 min
Histogram: 1 0 0 2 0 1 0 1 0 1

Total # of neighbors = 3621654
Ave neighs/atom = 114.05
Ave special neighs/atom = 5.09986
Neighbor list builds = 100
Dangerous builds = 100
velocity all zero linear
WARNING: Use special bonds = 0,1,1 with bond style fene (bond_fene.cpp:189)
Memory usage per processor = 18.891 Mbytes
Step sdpd_kin pTemp 
  162000 1.0185161e+09 9.9701443e+08 
  162100 1.0137317e+09 9.9294381e+08 
  162200 1.0223862e+09 1.0014469e+09 
  162300 1.0259122e+09 1.0048676e+09 
  162400 1.0149438e+09 9.9360175e+08 
  162500 1.0240409e+09 1.0034172e+09 
  162600 1.0204787e+09 9.9960794e+08 
  162700 1.0206764e+09 9.9978301e+08 
  162800 1.0185665e+09 9.9763307e+08 
  162900 1.0268498e+09 1.0060415e+09 
  163000 1.0236218e+09 1.0026601e+09 
Loop time of 675.692 on 6 procs for 1000 steps with 31755 atoms

Pair  time (%) = 602.488 (89.1661)
Bond  time (%) = 0.778362 (0.115195)
Neigh time (%) = 5.1486 (0.761975)
Comm  time (%) = 32.3449 (4.78692)
Outpt time (%) = 2.10614 (0.311701)
Other time (%) = 32.826 (4.85813)

Nlocal:    5292.5 ave 5464 max 5183 min
Histogram: 1 0 1 2 1 0 0 0 0 1
Nghost:    7716.33 ave 7946 max 7553 min
Histogram: 2 0 1 0 0 0 2 0 0 1
Neighs:    301819 ave 320579 max 292444 min
Histogram: 1 2 1 0 1 0 0 0 0 1
FullNghs: 603638 ave 642710 max 584141 min
Histogram: 1 2 1 0 1 0 0 0 0 1

Total # of neighbors = 3621828
Ave neighs/atom = 114.055
Ave special neighs/atom = 5.09986
Neighbor list builds = 100
Dangerous builds = 100
velocity all zero linear
WARNING: Use special bonds = 0,1,1 with bond style fene (bond_fene.cpp:189)
Memory usage per processor = 18.891 Mbytes
Step sdpd_kin pTemp 
  163000 1.0236214e+09 1.0026601e+09 
  163100 1.022782e+09 1.0013728e+09 
  163200 1.0160059e+09 9.9491121e+08 
  163300 1.0256251e+09 1.0039694e+09 
  163400 1.0154837e+09 9.9434017e+08 
  163500 1.0191146e+09 9.9772126e+08 
  163600 1.0234844e+09 1.0017543e+09 
  163700 1.0243264e+09 1.0024645e+09 
  163800 1.0300558e+09 1.0084534e+09 
  163900 1.0271479e+09 1.0058522e+09 
  164000 1.0171863e+09 9.9579059e+08 
Loop time of 672.254 on 6 procs for 1000 steps with 31755 atoms

Pair  time (%) = 599.883 (89.2345)
Bond  time (%) = 0.777564 (0.115665)
Neigh time (%) = 5.13707 (0.764156)
Comm  time (%) = 31.6793 (4.7124)
Outpt time (%) = 2.10522 (0.313158)
Other time (%) = 32.6725 (4.86014)

Nlocal:    5292.5 ave 5396 max 5182 min
Histogram: 1 0 0 0 2 1 1 0 0 1
Nghost:    7750.5 ave 7998 max 7581 min
Histogram: 2 0 0 1 1 0 1 0 0 1
Neighs:    301965 ave 313607 max 292778 min
Histogram: 1 1 1 0 0 1 0 1 0 1
FullNghs: 603931 ave 626706 max 585230 min
Histogram: 1 1 1 0 0 1 0 1 0 1

Total # of neighbors = 3623584
Ave neighs/atom = 114.111
Ave special neighs/atom = 5.09986
Neighbor list builds = 100
Dangerous builds = 100
velocity all zero linear
WARNING: Use special bonds = 0,1,1 with bond style fene (bond_fene.cpp:189)
Memory usage per processor = 18.891 Mbytes
Step sdpd_kin pTemp 
  164000 1.017186e+09 9.9579059e+08 
  164100 1.0186386e+09 9.9771876e+08 
  164200 1.0256318e+09 1.0043973e+09 
  164300 1.0242007e+09 1.0025026e+09 
  164400 1.0132897e+09 9.9181686e+08 
  164500 1.0253709e+09 1.0038939e+09 
  164600 1.0338466e+09 1.0121592e+09 
  164700 1.0289896e+09 1.0075371e+09 
  164800 1.0292953e+09 1.0082043e+09 
  164900 1.0232384e+09 1.0023811e+09 
  165000 1.0276498e+09  1.00676e+09 
Loop time of 660.929 on 6 procs for 1000 steps with 31755 atoms

Pair  time (%) = 600.632 (90.877)
Bond  time (%) = 0.793334 (0.120033)
Neigh time (%) = 5.16572 (0.781585)
Comm  time (%) = 18.8421 (2.85085)
Outpt time (%) = 2.10261 (0.318129)
Other time (%) = 33.3931 (5.05245)

Nlocal:    5292.5 ave 5380 max 5205 min
Histogram: 1 0 0 2 0 1 1 0 0 1
Nghost:    7839.17 ave 8026 max 7603 min
Histogram: 1 1 0 0 0 0 1 1 1 1
Neighs:    302037 ave 310694 max 294358 min
Histogram: 1 1 1 0 0 0 1 0 1 1
FullNghs: 604073 ave 622967 max 588392 min
Histogram: 2 0 1 0 0 0 1 0 1 1

Total # of neighbors = 3624440
Ave neighs/atom = 114.138
Ave special neighs/atom = 5.09986
Neighbor list builds = 100
Dangerous builds = 100
velocity all zero linear
WARNING: Use special bonds = 0,1,1 with bond style fene (bond_fene.cpp:189)
Memory usage per processor = 18.891 Mbytes
Step sdpd_kin pTemp 
  165000 1.0276497e+09  1.00676e+09 
  165100 1.0304289e+09 1.0098871e+09 
  165200 1.0247356e+09 1.0041424e+09 
  165300 1.0193568e+09 9.9880278e+08 
  165400 1.0250767e+09 1.0044236e+09 
  165500 1.0321065e+09 1.0111712e+09 
  165600 1.0261282e+09 1.0045307e+09 
  165700 1.018262e+09 9.967329e+08 
  165800 1.0234618e+09 1.0018299e+09 
  165900 1.0225813e+09 1.0008107e+09 
  166000 1.0285217e+09 1.0062783e+09 
Loop time of 667.367 on 6 procs for 1000 steps with 31755 atoms

Pair  time (%) = 601.26 (90.0943)
Bond  time (%) = 0.788814 (0.118198)
Neigh time (%) = 5.15923 (0.773073)
Comm  time (%) = 22.8495 (3.42384)
Outpt time (%) = 2.09554 (0.314001)
Other time (%) = 35.2139 (5.27655)

Nlocal:    5292.5 ave 5407 max 5128 min
Histogram: 1 0 0 1 0 1 0 1 1 1
Nghost:    7867 ave 7987 max 7768 min
Histogram: 2 1 0 0 0 0 1 0 1 1
Neighs:    302042 ave 317704 max 288954 min
Histogram: 1 1 0 1 1 0 0 1 0 1
FullNghs: 604083 ave 635077 max 578032 min
Histogram: 1 1 0 1 0 1 0 1 0 1

Total # of neighbors = 3624500
Ave neighs/atom = 114.14
Ave special neighs/atom = 5.09986
Neighbor list builds = 100
Dangerous builds = 100
velocity all zero linear
WARNING: Use special bonds = 0,1,1 with bond style fene (bond_fene.cpp:189)
Memory usage per processor = 18.891 Mbytes
Step sdpd_kin pTemp 
  166000 1.0285217e+09 1.0062783e+09 
  166100 1.0221755e+09 1.0003106e+09 
  166200 1.0352028e+09 1.0130893e+09 
  166300 1.0167035e+09 9.9464986e+08 
  166400 1.0229705e+09 1.0008524e+09 
  166500   1.0137e+09 9.9143952e+08 
  166600 1.0143232e+09 9.9176125e+08 
  166700 1.0211218e+09 9.9858147e+08 
  166800 1.0258261e+09 1.0033816e+09 
  166900 1.0335102e+09 1.0113296e+09 
  167000 1.0245513e+09 1.0027795e+09 
Loop time of 679.363 on 6 procs for 1000 steps with 31755 atoms

Pair  time (%) = 600.957 (88.459)
Bond  time (%) = 0.781504 (0.115035)
Neigh time (%) = 5.14459 (0.757267)
Comm  time (%) = 35.4806 (5.22263)
Outpt time (%) = 2.10513 (0.309869)
Other time (%) = 34.8936 (5.13622)

Nlocal:    5292.5 ave 5481 max 5177 min
Histogram: 2 0 1 0 0 2 0 0 0 1
Nghost:    7819.67 ave 7988 max 7529 min
Histogram: 1 0 0 1 0 0 0 2 0 2
Neighs:    302393 ave 325224 max 287172 min
Histogram: 2 0 0 1 1 1 0 0 0 1
FullNghs: 604787 ave 649489 max 574566 min
Histogram: 2 0 0 1 1 1 0 0 0 1

Total # of neighbors = 3628720
Ave neighs/atom = 114.272
Ave special neighs/atom = 5.09986
Neighbor list builds = 100
Dangerous builds = 100
velocity all zero linear
WARNING: Use special bonds = 0,1,1 with bond style fene (bond_fene.cpp:189)
Memory usage per processor = 18.891 Mbytes
Step sdpd_kin pTemp 
  167000 1.0245511e+09 1.0027795e+09 
  167100 1.0251941e+09 1.0033671e+09 
  167200 1.0238073e+09 1.0014736e+09 
  167300 1.021854e+09 9.997202e+08 
  167400 1.022519e+09 1.0002351e+09 
  167500 1.0260082e+09 1.0040674e+09 
  167600 1.0216072e+09 9.9977756e+08 
  167700 1.031281e+09 1.0096396e+09 
  167800 1.0228391e+09 1.0009785e+09 
  167900 1.0261383e+09 1.004112e+09 
  168000 1.0178063e+09 9.9590197e+08 
Loop time of 689.786 on 6 procs for 1000 steps with 31755 atoms

Pair  time (%) = 600.836 (87.1047)
Bond  time (%) = 0.779225 (0.112966)
Neigh time (%) = 5.12511 (0.743)
Comm  time (%) = 46.1335 (6.68809)
Outpt time (%) = 2.1176 (0.306993)
Other time (%) = 34.7946 (5.04427)

Nlocal:    5292.5 ave 5537 max 5086 min
Histogram: 1 1 0 0 1 1 1 0 0 1
Nghost:    7889.83 ave 8022 max 7761 min
Histogram: 2 0 0 1 0 0 1 0 1 1
Neighs:    301250 ave 325929 max 280013 min
Histogram: 1 1 0 1 0 0 2 0 0 1
FullNghs: 602501 ave 651242 max 561029 min
Histogram: 1 1 0 1 0 0 2 0 0 1

Total # of neighbors = 3615006
Ave neighs/atom = 113.841
Ave special neighs/atom = 5.09986
Neighbor list builds = 100
Dangerous builds = 100
velocity all zero linear
WARNING: Use special bonds = 0,1,1 with bond style fene (bond_fene.cpp:189)
Memory usage per processor = 18.891 Mbytes
Step sdpd_kin pTemp 
  168000 1.0178062e+09 9.9590197e+08 
  168100 1.0309886e+09 1.0086783e+09 
  168200 1.0238418e+09 1.0013872e+09 
  168300 1.0245905e+09 1.0020268e+09 
  168400 1.0205843e+09 9.980867e+08 
  168500 1.0255837e+09 1.0035949e+09 
  168600 1.0255561e+09 1.0035085e+09 
  168700 1.0194095e+09 9.9691366e+08 
  168800 1.0165341e+09 9.9383682e+08 
  168900 1.0285151e+09 1.0060352e+09 
  169000 1.0239462e+09 1.0019205e+09 
Loop time of 695.799 on 6 procs for 1000 steps with 31755 atoms

Pair  time (%) = 601.227 (86.4081)
Bond  time (%) = 0.774663 (0.111334)
Neigh time (%) = 5.12659 (0.736792)
Comm  time (%) = 50.4796 (7.2549)
Outpt time (%) = 2.10132 (0.302001)
Other time (%) = 36.0902 (5.18687)

Nlocal:    5292.5 ave 5474 max 5161 min
Histogram: 2 0 0 1 1 0 1 0 0 1
Nghost:    7918.17 ave 8049 max 7837 min
Histogram: 2 1 1 0 0 0 0 0 1 1
Neighs:    301554 ave 321068 max 285851 min
Histogram: 1 0 1 1 0 1 1 0 0 1
FullNghs: 603108 ave 639860 max 573558 min
Histogram: 1 0 2 0 0 1 1 0 0 1

Total # of neighbors = 3618646
Ave neighs/atom = 113.955
Ave special neighs/atom = 5.09986
Neighbor list builds = 100
Dangerous builds = 100
velocity all zero linear
WARNING: Use special bonds = 0,1,1 with bond style fene (bond_fene.cpp:189)
Memory usage per processor = 18.891 Mbytes
Step sdpd_kin pTemp 
  169000 1.0239461e+09 1.0019205e+09 
  169100 1.026736e+09 1.0044547e+09 
  169200 1.0262167e+09 1.0043823e+09 
  169300 1.0280707e+09 1.0059792e+09 
  169400 1.0313544e+09 1.0094785e+09 
  169500 1.0165299e+09 9.9529651e+08 
  169600 1.0304211e+09 1.0096209e+09 
  169700 1.0234474e+09 1.0027687e+09 
  169800 1.0280621e+09 1.0073875e+09 
  169900 1.0240087e+09 1.0035862e+09 
  170000 1.0330072e+09 1.0125911e+09 
Loop time of 672.881 on 6 procs for 1000 steps with 31755 atoms

Pair  time (%) = 602.2 (89.4958)
Bond  time (%) = 0.782911 (0.116352)
Neigh time (%) = 5.17341 (0.768845)
Comm  time (%) = 26.422 (3.9267)
Outpt time (%) = 2.11702 (0.314621)
Other time (%) = 36.1854 (5.37768)

Nlocal:    5292.5 ave 5368 max 5204 min
Histogram: 2 0 0 1 0 0 0 0 1 2
Nghost:    7935.5 ave 8159 max 7760 min
Histogram: 1 0 1 1 1 1 0 0 0 1
Neighs:    303106 ave 312896 max 291198 min
Histogram: 1 0 1 0 1 1 0 0 0 2
FullNghs: 606212 ave 625765 max 583849 min
Histogram: 1 0 1 0 1 1 0 0 0 2

Total # of neighbors = 3637270
Ave neighs/atom = 114.542
Ave special neighs/atom = 5.09986
Neighbor list builds = 100
Dangerous builds = 99
velocity all zero linear
WARNING: Use special bonds = 0,1,1 with bond style fene (bond_fene.cpp:189)
Memory usage per processor = 18.891 Mbytes
Step sdpd_kin pTemp 
  170000 1.033007e+09 1.0125911e+09 
  170100 1.0259534e+09 1.0047986e+09 
  170200 1.0256723e+09 1.0049568e+09 
  170300 1.022281e+09 1.0023286e+09 
  170400 1.0298868e+09 1.0095137e+09 
  170500 1.0255165e+09 1.0051773e+09 
  170600 1.0220534e+09 1.0023529e+09 
  170700 1.0231265e+09 1.0029545e+09 
  170800 1.0219218e+09 1.0024182e+09 
  170900 1.0242362e+09  1.00469e+09 
  171000 1.0228455e+09 1.003574e+09 
Loop time of 678.963 on 6 procs for 1000 steps with 31755 atoms

Pair  time (%) = 603.281 (88.8533)
Bond  time (%) = 0.779914 (0.114868)
Neigh time (%) = 5.13692 (0.756583)
Comm  time (%) = 32.7491 (4.82339)
Outpt time (%) = 2.1003 (0.309339)
Other time (%) = 34.9158 (5.14253)

Nlocal:    5292.5 ave 5391 max 5193 min
Histogram: 1 2 0 0 0 0 0 1 0 2
Nghost:    7799.33 ave 7978 max 7599 min
Histogram: 1 1 0 0 1 0 1 0 0 2
Neighs:    302513 ave 317565 max 292797 min
Histogram: 2 1 0 0 1 0 0 1 0 1
FullNghs: 605027 ave 632916 max 585874 min
Histogram: 2 1 0 0 1 0 0 1 0 1

Total # of neighbors = 3630160
Ave neighs/atom = 114.318
Ave special neighs/atom = 5.09986
Neighbor list builds = 100
Dangerous builds = 100
velocity all zero linear
WARNING: Use special bonds = 0,1,1 with bond style fene (bond_fene.cpp:189)
Memory usage per processor = 18.891 Mbytes
Step sdpd_kin pTemp 
  171000 1.0228455e+09 1.003574e+09 
  171100 1.0273978e+09 1.0080285e+09 
  171200 1.0188074e+09 9.986551e+08 
  171300 1.0278748e+09 1.0077912e+09 
  171400 1.0253681e+09 1.0052714e+09 
  171500 1.0255152e+09 1.0055804e+09 
  171600 1.0215633e+09 1.0010822e+09 
  171700 1.0280564e+09 1.0075062e+09 
  171800 1.0235304e+09 1.003472e+09 
  171900 1.0262927e+09 1.0063072e+09 
  172000 1.0223926e+09 1.0022149e+09 
Loop time of 690.65 on 6 procs for 1000 steps with 31755 atoms

Pair  time (%) = 602.859 (87.2885)
Bond  time (%) = 0.778423 (0.112709)
Neigh time (%) = 5.1491 (0.745544)
Comm  time (%) = 44.2583 (6.40821)
Outpt time (%) = 2.09342 (0.303109)
Other time (%) = 35.5124 (5.14188)

Nlocal:    5292.5 ave 5507 max 5139 min
Histogram: 1 0 2 1 0 0 0 1 0 1
Nghost:    7853.83 ave 8061 max 7762 min
Histogram: 2 1 1 0 1 0 0 0 0 1
Neighs:    302930 ave 325755 max 285583 min
Histogram: 1 0 2 1 0 0 1 0 0 1
FullNghs: 605861 ave 650844 max 574066 min
Histogram: 1 1 1 1 0 0 1 0 0 1

Total # of neighbors = 3635164
Ave neighs/atom = 114.475
Ave special neighs/atom = 5.09986
Neighbor list builds = 100
Dangerous builds = 100
velocity all zero linear
WARNING: Use special bonds = 0,1,1 with bond style fene (bond_fene.cpp:189)
Memory usage per processor = 18.891 Mbytes
Step sdpd_kin pTemp 
  172000 1.0223926e+09 1.0022149e+09 
  172100 1.0258703e+09 1.0061717e+09 
  172200 1.0239319e+09 1.0040279e+09 
  172300 1.0244236e+09 1.0042821e+09 
  172400 1.0166589e+09 9.9617716e+08 
  172500 1.0242955e+09 1.0041295e+09 
  172600 1.0290997e+09 1.0084405e+09 
  172700 1.0300319e+09 1.0095734e+09 
  172800 1.0248097e+09 1.0043255e+09 
  172900 1.0277988e+09 1.0072336e+09 
  173000 1.0135121e+09 9.9261885e+08 
Loop time of 702.293 on 6 procs for 1000 steps with 31755 atoms

Pair  time (%) = 603.098 (85.8756)
Bond  time (%) = 0.776368 (0.110548)
Neigh time (%) = 5.14127 (0.732069)
Comm  time (%) = 57.548 (8.1943)
Outpt time (%) = 2.09713 (0.298611)
Other time (%) = 33.6318 (4.78886)

Nlocal:    5292.5 ave 5552 max 5075 min
Histogram: 1 1 0 1 1 0 0 1 0 1
Nghost:    7787.33 ave 7977 max 7719 min
Histogram: 2 1 2 0 0 0 0 0 0 1
Neighs:    303107 ave 331699 max 284868 min
Histogram: 2 0 2 0 0 0 0 1 0 1
FullNghs: 606215 ave 662903 max 569806 min
Histogram: 2 0 2 0 0 0 0 1 0 1

Total # of neighbors = 3637288
Ave neighs/atom = 114.542
Ave special neighs/atom = 5.09986
Neighbor list builds = 100
Dangerous builds = 100
velocity all zero linear
WARNING: Use special bonds = 0,1,1 with bond style fene (bond_fene.cpp:189)
Memory usage per processor = 18.1281 Mbytes
Step sdpd_kin pTemp 
  173000 1.013512e+09 9.9261885e+08 
  173100 1.0235884e+09 1.0023651e+09 
  173200 1.0227148e+09 1.0016897e+09 
  173300 1.0276859e+09 1.006734e+09 
  173400 1.0136354e+09 9.9271769e+08 
  173500 1.0316933e+09 1.0107806e+09 
  173600 1.0273557e+09 1.0064719e+09 
  173700 1.0227811e+09 1.0015614e+09 
  173800 1.0251363e+09 1.0041538e+09 
  173900 1.0210206e+09 1.0001466e+09 
  174000 1.0221976e+09 1.0014659e+09 
Loop time of 689.449 on 6 procs for 1000 steps with 31755 atoms

Pair  time (%) = 605.493 (87.8228)
Bond  time (%) = 0.79031 (0.114629)
Neigh time (%) = 5.14119 (0.745696)
Comm  time (%) = 41.2687 (5.98575)
Outpt time (%) = 2.07612 (0.301127)
Other time (%) = 34.6792 (5.02999)

Nlocal:    5292.5 ave 5463 max 5097 min
Histogram: 1 0 1 0 1 0 1 0 1 1
Nghost:    7836.67 ave 8045 max 7630 min
Histogram: 1 0 1 0 1 1 0 1 0 1
Neighs:    303645 ave 321110 max 285390 min
Histogram: 1 0 1 1 0 1 0 0 0 2
FullNghs: 607289 ave 641455 max 572097 min
Histogram: 1 1 0 1 0 1 0 0 0 2

Total # of neighbors = 3643736
Ave neighs/atom = 114.745
Ave special neighs/atom = 5.09986
Neighbor list builds = 100
Dangerous builds = 100
velocity all zero linear
WARNING: Use special bonds = 0,1,1 with bond style fene (bond_fene.cpp:189)
Memory usage per processor = 18.1281 Mbytes
Step sdpd_kin pTemp 
  174000 1.0221976e+09 1.0014659e+09 
  174100 1.0191269e+09 9.9817503e+08 
  174200 1.0264765e+09 1.0055542e+09 
  174300 1.0281891e+09 1.0074435e+09 
  174400 1.0148736e+09 9.9428093e+08 
  174500 1.0205619e+09 9.9974481e+08 
  174600 1.0333977e+09 1.0121837e+09 
  174700 1.0268233e+09 1.0054777e+09 
  174800 1.0295986e+09 1.0086877e+09 
  174900 1.029553e+09 1.0091248e+09 
  175000 1.0252904e+09 1.004605e+09 
Loop time of 680.394 on 6 procs for 1000 steps with 31755 atoms

Pair  time (%) = 603.317 (88.6716)
Bond  time (%) = 0.781898 (0.114918)
Neigh time (%) = 5.14546 (0.756247)
Comm  time (%) = 34.1942 (5.02564)
Outpt time (%) = 2.07787 (0.305393)
Other time (%) = 34.8784 (5.12621)

Nlocal:    5292.5 ave 5450 max 5157 min
Histogram: 1 1 0 1 1 0 0 0 1 1
Nghost:    7836.17 ave 8006 max 7702 min
Histogram: 2 0 1 0 1 0 0 0 0 2
Neighs:    302960 ave 321881 max 290602 min
Histogram: 1 1 2 0 0 0 1 0 0 1
FullNghs: 605920 ave 643981 max 582754 min
Histogram: 1 2 1 0 0 0 1 0 0 1

Total # of neighbors = 3635520
Ave neighs/atom = 114.487
Ave special neighs/atom = 5.09986
Neighbor list builds = 100
Dangerous builds = 100
velocity all zero linear
WARNING: Use special bonds = 0,1,1 with bond style fene (bond_fene.cpp:189)
Memory usage per processor = 18.891 Mbytes
Step sdpd_kin pTemp 
  175000 1.0252904e+09 1.004605e+09 
  175100 1.0219197e+09 1.0006283e+09 
  175200 1.0242555e+09 1.0033359e+09 
  175300 1.0177227e+09 9.9643316e+08 
  175400 1.0282833e+09 1.0073512e+09 
  175500 1.0225543e+09 1.0010676e+09 
  175600 1.023621e+09 1.0020055e+09 
  175700 1.0186336e+09 9.9726214e+08 
  175800 1.032913e+09 1.011757e+09 
  175900 1.0270207e+09 1.0055076e+09 
  176000 1.0262041e+09 1.0043478e+09 
Loop time of 675.986 on 6 procs for 1000 steps with 31755 atoms

Pair  time (%) = 603.844 (89.3279)
Bond  time (%) = 0.790653 (0.116963)
Neigh time (%) = 5.15882 (0.763155)
Comm  time (%) = 28.5266 (4.22)
Outpt time (%) = 2.10218 (0.31098)
Other time (%) = 35.5635 (5.26098)

Nlocal:    5292.5 ave 5366 max 5064 min
Histogram: 1 0 0 0 0 0 0 1 1 3
Nghost:    7895.33 ave 8056 max 7765 min
Histogram: 2 0 1 0 0 0 1 1 0 1
Neighs:    302970 ave 312198 max 283197 min
Histogram: 1 0 0 0 0 1 0 0 2 2
FullNghs: 605940 ave 624508 max 568337 min
Histogram: 1 0 0 0 0 1 0 1 2 1

Total # of neighbors = 3635642
Ave neighs/atom = 114.49
Ave special neighs/atom = 5.09986
Neighbor list builds = 100
Dangerous builds = 100
velocity all zero linear
WARNING: Use special bonds = 0,1,1 with bond style fene (bond_fene.cpp:189)
Memory usage per processor = 18.891 Mbytes
Step sdpd_kin pTemp 
  176000 1.026204e+09 1.0043478e+09 
  176100 1.0214709e+09 1.0001785e+09 
  176200 1.0149248e+09 9.9317017e+08 
  176300 1.0186684e+09 9.9703921e+08 
  176400 1.0154214e+09 9.9391127e+08 
  176500 1.035429e+09 1.013537e+09 
  176600 1.0155682e+09 9.9372353e+08 
  176700 1.0265938e+09 1.0046426e+09 
  176800 1.0286804e+09 1.006738e+09 
  176900 1.0325057e+09 1.0101145e+09 
  177000 1.0270638e+09 1.0047116e+09 
Loop time of 668.372 on 6 procs for 1000 steps with 31755 atoms

Pair  time (%) = 603.817 (90.3414)
Bond  time (%) = 0.783448 (0.117217)
Neigh time (%) = 5.14446 (0.7697)
Comm  time (%) = 21.8408 (3.26777)
Outpt time (%) = 2.07861 (0.310996)
Other time (%) = 34.7079 (5.19289)

Nlocal:    5292.5 ave 5409 max 5175 min
Histogram: 1 1 0 0 0 2 0 1 0 1
Nghost:    7774.67 ave 8028 max 7621 min
Histogram: 2 1 0 0 1 0 1 0 0 1
Neighs:    302950 ave 317280 max 293828 min
Histogram: 2 0 0 1 1 1 0 0 0 1
FullNghs: 605899 ave 634128 max 587272 min
Histogram: 2 0 0 1 1 1 0 0 0 1

Total # of neighbors = 3635394
Ave neighs/atom = 114.483
Ave special neighs/atom = 5.09986
Neighbor list builds = 100
Dangerous builds = 100
velocity all zero linear
WARNING: Use special bonds = 0,1,1 with bond style fene (bond_fene.cpp:189)
Memory usage per processor = 18.891 Mbytes
Step sdpd_kin pTemp 
  177000 1.0270635e+09 1.0047116e+09 
  177100 1.0284866e+09 1.0056288e+09 
  177200 1.0199977e+09 9.9706231e+08 
  177300 1.0252395e+09 1.0025365e+09 
  177400 1.0217872e+09 9.9901278e+08 
  177500 1.0256682e+09 1.0022002e+09 
  177600 1.0246003e+09 1.0012808e+09 
  177700 1.0298853e+09 1.0058143e+09 
  177800 1.0271513e+09 1.0031828e+09 
  177900 1.0293765e+09 1.0056805e+09 
  178000 1.0302498e+09 1.0059637e+09 
Loop time of 686.189 on 6 procs for 1000 steps with 31755 atoms

Pair  time (%) = 602.105 (87.7461)
Bond  time (%) = 0.782547 (0.114042)
Neigh time (%) = 5.15999 (0.751977)
Comm  time (%) = 42.1069 (6.13634)
Outpt time (%) = 2.07882 (0.302952)
Other time (%) = 33.9565 (4.94856)

Nlocal:    5292.5 ave 5507 max 5104 min
Histogram: 1 0 1 1 1 0 0 1 0 1
Nghost:    7773.5 ave 8011 max 7579 min
Histogram: 1 2 0 0 0 1 0 0 1 1
Neighs:    302470 ave 326978 max 282681 min
Histogram: 1 0 0 3 0 0 1 0 0 1
FullNghs: 604941 ave 654318 max 566278 min
Histogram: 1 0 1 2 0 0 1 0 0 1

Total # of neighbors = 3629644
Ave neighs/atom = 114.301
Ave special neighs/atom = 5.09986
Neighbor list builds = 100
Dangerous builds = 100
velocity all zero linear
WARNING: Use special bonds = 0,1,1 with bond style fene (bond_fene.cpp:189)
Memory usage per processor = 18.891 Mbytes
Step sdpd_kin pTemp 
  178000 1.0302495e+09 1.0059637e+09 
  178100 1.0242242e+09 1.000191e+09 
  178200 1.0277251e+09 1.0036843e+09 
  178300 1.0311892e+09 1.0066396e+09 
  178400 1.0272721e+09 1.0027844e+09 
  178500 1.0219631e+09 9.9803993e+08 
  178600 1.0314828e+09  1.00726e+09 
  178700 1.030646e+09 1.0065921e+09 
  178800 1.0408964e+09 1.0172525e+09 
  178900 1.0227257e+09 9.9891113e+08 
  179000 1.0275897e+09 1.0036029e+09 
Loop time of 698.285 on 6 procs for 1000 steps with 31755 atoms

Pair  time (%) = 604.221 (86.5293)
Bond  time (%) = 0.776702 (0.11123)
Neigh time (%) = 5.15895 (0.738804)
Comm  time (%) = 50.7723 (7.27101)
Outpt time (%) = 2.08893 (0.299152)
Other time (%) = 35.2667 (5.05048)

Nlocal:    5292.5 ave 5510 max 5100 min
Histogram: 2 0 0 0 2 0 0 0 0 2
Nghost:    7880.5 ave 8086 max 7589 min
Histogram: 1 0 0 1 0 1 0 1 1 1
Neighs:    303664 ave 329826 max 281354 min
Histogram: 2 0 0 1 0 1 0 0 1 1
FullNghs: 607329 ave 660311 max 563467 min
Histogram: 2 0 0 1 0 1 0 0 1 1

Total # of neighbors = 3643974
Ave neighs/atom = 114.753
Ave special neighs/atom = 5.09986
Neighbor list builds = 100
Dangerous builds = 100
velocity all zero linear
WARNING: Use special bonds = 0,1,1 with bond style fene (bond_fene.cpp:189)
Memory usage per processor = 18.891 Mbytes
Step sdpd_kin pTemp 
  179000 1.0275894e+09 1.0036029e+09 
  179100 1.0277352e+09 1.0036235e+09 
  179200 1.0301925e+09 1.006245e+09 
  179300 1.0314057e+09 1.0069727e+09 
  179400 1.0265284e+09 1.0027981e+09 
  179500 1.0332717e+09 1.009404e+09 
  179600 1.0291558e+09 1.0052948e+09 
  179700 1.0328291e+09 1.0087929e+09 
  179800 1.0284206e+09 1.0046635e+09 
  179900 1.0213123e+09 9.9815517e+08 
  180000 1.0287473e+09 1.0056683e+09 
Loop time of 694.916 on 6 procs for 1000 steps with 31755 atoms

Pair  time (%) = 602.938 (86.7642)
Bond  time (%) = 0.778401 (0.112014)
Neigh time (%) = 5.12281 (0.737185)
Comm  time (%) = 48.3592 (6.95901)
Outpt time (%) = 2.10227 (0.302522)
Other time (%) = 35.615 (5.12508)

Nlocal:    5292.5 ave 5518 max 5017 min
Histogram: 1 0 1 0 0 0 2 1 0 1
Nghost:    7878.5 ave 7981 max 7730 min
Histogram: 1 0 0 0 1 2 0 0 0 2
Neighs:    303002 ave 324687 max 275949 min
Histogram: 1 0 1 0 0 1 0 1 1 1
FullNghs: 606004 ave 648068 max 553129 min
Histogram: 1 0 1 0 0 1 0 1 1 1

Total # of neighbors = 3636024
Ave neighs/atom = 114.502
Ave special neighs/atom = 5.09986
Neighbor list builds = 100
Dangerous builds = 99
velocity all zero linear
WARNING: Use special bonds = 0,1,1 with bond style fene (bond_fene.cpp:189)
Memory usage per processor = 18.891 Mbytes
Step sdpd_kin pTemp 
  180000 1.0287471e+09 1.0056683e+09 
  180100 1.0228475e+09 9.9921514e+08 
  180200 1.0297397e+09  1.00657e+09 
  180300 1.026432e+09 1.0027538e+09 
  180400 1.0251339e+09 1.0010852e+09 
  180500 1.0330906e+09 1.0090074e+09 
  180600 1.0380194e+09 1.0139581e+09 
  180700 1.0171077e+09 9.9258864e+08 
  180800 1.0338965e+09 1.0093812e+09 
  180900 1.034788e+09 1.0098383e+09 
  181000 1.0212663e+09 9.9666754e+08 
Loop time of 687.369 on 6 procs for 1000 steps with 31755 atoms

Pair  time (%) = 603.182 (87.7523)
Bond  time (%) = 0.777853 (0.113164)
Neigh time (%) = 5.13279 (0.74673)
Comm  time (%) = 40.4471 (5.88433)
Outpt time (%) = 2.10569 (0.306341)
Other time (%) = 35.7232 (5.19709)

Nlocal:    5292.5 ave 5441 max 5159 min
Histogram: 2 0 1 0 0 0 1 0 1 1
Nghost:    7834.83 ave 8082 max 7554 min
Histogram: 1 0 0 1 0 1 2 0 0 1
Neighs:    303159 ave 322841 max 287146 min
Histogram: 2 0 0 1 0 1 0 1 0 1
FullNghs: 606317 ave 645285 max 575064 min
Histogram: 2 0 0 1 0 1 0 0 1 1

Total # of neighbors = 3637904
Ave neighs/atom = 114.562
Ave special neighs/atom = 5.09986
Neighbor list builds = 100
Dangerous builds = 100
velocity all zero linear
WARNING: Use special bonds = 0,1,1 with bond style fene (bond_fene.cpp:189)
Memory usage per processor = 18.891 Mbytes
Step sdpd_kin pTemp 
  181000 1.0212662e+09 9.9666754e+08 
  181100 1.0252312e+09 1.0007181e+09 
  181200 1.0252788e+09 1.0009561e+09 
  181300 1.025439e+09 1.0014462e+09 
  181400 1.0252283e+09 1.0005529e+09 
  181500 1.0249694e+09 1.0005887e+09 
  181600 1.0405499e+09 1.0160799e+09 
  181700 1.0236932e+09 9.9924748e+08 
  181800 1.0296187e+09 1.005597e+09 
  181900 1.0299714e+09 1.005927e+09 
  182000 1.0229731e+09 9.9916732e+08 
Loop time of 692.136 on 6 procs for 1000 steps with 31755 atoms

Pair  time (%) = 604.13 (87.2849)
Bond  time (%) = 0.778524 (0.112481)
Neigh time (%) = 5.13018 (0.74121)
Comm  time (%) = 44.3865 (6.41297)
Outpt time (%) = 2.07943 (0.300437)
Other time (%) = 35.6315 (5.14804)

Nlocal:    5292.5 ave 5435 max 5144 min
Histogram: 1 1 0 0 1 1 0 0 0 2
Nghost:    7923 ave 8134 max 7803 min
Histogram: 2 1 1 0 0 0 0 1 0 1
Neighs:    303782 ave 321934 max 288176 min
Histogram: 2 0 0 1 1 0 0 0 1 1
FullNghs: 607564 ave 643518 max 576558 min
Histogram: 2 0 0 1 0 1 0 0 1 1

Total # of neighbors = 3645384
Ave neighs/atom = 114.797
Ave special neighs/atom = 5.09986
Neighbor list builds = 100
Dangerous builds = 100
velocity all zero linear
WARNING: Use special bonds = 0,1,1 with bond style fene (bond_fene.cpp:189)
Memory usage per processor = 18.891 Mbytes
Step sdpd_kin pTemp 
  182000 1.0229729e+09 9.9916732e+08 
  182100 1.0232232e+09 9.9981544e+08 
  182200 1.0296225e+09 1.0057934e+09 
  182300 1.0217732e+09 9.9832095e+08 
  182400 1.0202826e+09 9.962677e+08 
  182500 1.0276119e+09 1.0033725e+09 
  182600 1.0171435e+09 9.9277197e+08 
  182700 1.022876e+09 9.9865517e+08 
  182800 1.0280183e+09 1.0045658e+09 
  182900 1.0180098e+09 9.9475205e+08 
  183000 1.0234908e+09 1.0005586e+09 
Loop time of 683.403 on 6 procs for 1000 steps with 31755 atoms

Pair  time (%) = 605.456 (88.5943)
Bond  time (%) = 0.785915 (0.115)
Neigh time (%) = 5.14832 (0.753335)
Comm  time (%) = 33.6807 (4.92838)
Outpt time (%) = 2.08668 (0.305336)
Other time (%) = 36.2454 (5.30366)

Nlocal:    5292.5 ave 5391 max 5128 min
Histogram: 1 1 0 0 0 0 0 0 2 2
Nghost:    7853 ave 8021 max 7661 min
Histogram: 1 0 0 1 1 0 1 1 0 1
Neighs:    304488 ave 313830 max 289940 min
Histogram: 2 0 0 0 0 0 1 0 0 3
FullNghs: 608976 ave 627968 max 580499 min
Histogram: 2 0 0 0 0 0 1 0 0 3

Total # of neighbors = 3653854
Ave neighs/atom = 115.064
Ave special neighs/atom = 5.09986
Neighbor list builds = 100
Dangerous builds = 100
velocity all zero linear
WARNING: Use special bonds = 0,1,1 with bond style fene (bond_fene.cpp:189)
Memory usage per processor = 18.891 Mbytes
Step sdpd_kin pTemp 
  183000 1.0234905e+09 1.0005586e+09 
  183100 1.0269791e+09 1.0039031e+09 
  183200 1.017046e+09 9.9391857e+08 
  183300 1.0242082e+09 1.0010288e+09 
  183400 1.0247859e+09 1.0022974e+09 
  183500 1.0298656e+09 1.0069114e+09 
  183600 1.0295531e+09 1.0060925e+09 
  183700 1.0214627e+09 9.9856333e+08 
  183800 1.0275338e+09 1.0049842e+09 
  183900 1.023082e+09 1.0008084e+09 
  184000 1.023638e+09 1.0015138e+09 
Loop time of 682.897 on 6 procs for 1000 steps with 31755 atoms

Pair  time (%) = 604.861 (88.5729)
Bond  time (%) = 0.779233 (0.114107)
Neigh time (%) = 5.1429 (0.7531)
Comm  time (%) = 34.0782 (4.99024)
Outpt time (%) = 2.09642 (0.30699)
Other time (%) = 35.9388 (5.2627)

Nlocal:    5292.5 ave 5419 max 5166 min
Histogram: 1 1 0 0 1 1 0 0 1 1
Nghost:    7821.83 ave 8016 max 7678 min
Histogram: 1 0 0 3 0 1 0 0 0 1
Neighs:    302907 ave 317381 max 290186 min
Histogram: 1 1 0 1 0 1 0 1 0 1
FullNghs: 605815 ave 635771 max 580705 min
Histogram: 1 1 0 1 0 1 0 1 0 1

Total # of neighbors = 3634888
Ave neighs/atom = 114.467
Ave special neighs/atom = 5.09986
Neighbor list builds = 100
Dangerous builds = 100
velocity all zero linear
WARNING: Use special bonds = 0,1,1 with bond style fene (bond_fene.cpp:189)
Memory usage per processor = 18.891 Mbytes
Step sdpd_kin pTemp 
  184000 1.023638e+09 1.0015138e+09 
  184100 1.0245726e+09 1.0021953e+09 
  184200 1.029352e+09 1.0066825e+09 
  184300 1.0231104e+09 1.0003494e+09 
  184400 1.0194735e+09 9.9636512e+08 
  184500 1.0297231e+09 1.0069178e+09 
  184600 1.021515e+09 9.9915735e+08 
  184700 1.0270176e+09 1.0044008e+09 
  184800 1.0250756e+09 1.0029819e+09 
  184900 1.0223271e+09 9.9994399e+08 
  185000 1.0252217e+09 1.0031769e+09 
Loop time of 667.026 on 6 procs for 1000 steps with 31755 atoms

Pair  time (%) = 602.435 (90.3166)
Bond  time (%) = 0.791276 (0.118627)
Neigh time (%) = 5.16501 (0.774335)
Comm  time (%) = 21.9611 (3.2924)
Outpt time (%) = 2.081 (0.311981)
Other time (%) = 34.5926 (5.1861)

Nlocal:    5292.5 ave 5368 max 5173 min
Histogram: 1 0 0 0 1 0 1 1 1 1
Nghost:    7765.33 ave 7935 max 7642 min
Histogram: 1 0 2 1 0 0 0 1 0 1
Neighs:    302855 ave 312362 max 289643 min
Histogram: 1 0 0 0 1 1 1 0 1 1
FullNghs: 605710 ave 621523 max 581945 min
Histogram: 1 0 0 0 1 1 0 1 1 1

Total # of neighbors = 3634260
Ave neighs/atom = 114.447
Ave special neighs/atom = 5.09986
Neighbor list builds = 100
Dangerous builds = 100
velocity all zero linear
WARNING: Use special bonds = 0,1,1 with bond style fene (bond_fene.cpp:189)
Memory usage per processor = 18.891 Mbytes
Step sdpd_kin pTemp 
  185000 1.0252217e+09 1.0031769e+09 
  185100 1.0194433e+09 9.9685346e+08 
  185200 1.0241066e+09 1.0018429e+09 
  185300 1.0236471e+09 1.0014412e+09 
  185400 1.0336598e+09 1.0108588e+09 
  185500 1.0181429e+09 9.9589332e+08 
  185600 1.0183345e+09 9.9596549e+08 
  185700 1.0215507e+09 9.9881367e+08 
  185800 1.0208067e+09 9.9767437e+08 
  185900 1.0304025e+09 1.0073295e+09 
  186000 1.0296606e+09 1.0072333e+09 
Loop time of 664.389 on 6 procs for 1000 steps with 31755 atoms

Pair  time (%) = 601.307 (90.5052)
Bond  time (%) = 0.792082 (0.11922)
Neigh time (%) = 5.18105 (0.779822)
Comm  time (%) = 21.5247 (3.23977)
Outpt time (%) = 2.08965 (0.314521)
Other time (%) = 33.4947 (5.04143)

Nlocal:    5292.5 ave 5389 max 5188 min
Histogram: 1 1 0 0 1 0 0 2 0 1
Nghost:    7845.17 ave 8025 max 7757 min
Histogram: 2 0 2 0 1 0 0 0 0 1
Neighs:    301776 ave 310679 max 292384 min
Histogram: 2 0 0 1 0 0 0 1 0 2
FullNghs: 603552 ave 624018 max 583898 min
Histogram: 2 0 0 1 0 0 0 1 1 1

Total # of neighbors = 3621310
Ave neighs/atom = 114.039
Ave special neighs/atom = 5.09986
Neighbor list builds = 100
Dangerous builds = 100
velocity all zero linear
WARNING: Use special bonds = 0,1,1 with bond style fene (bond_fene.cpp:189)
Memory usage per processor = 18.891 Mbytes
Step sdpd_kin pTemp 
  186000 1.0296606e+09 1.0072333e+09 
  186100 1.0266209e+09 1.0038515e+09 
  186200 1.0237012e+09 1.0008025e+09 
  186300 1.0204203e+09 9.9811045e+08 
  186400 1.0247076e+09 1.0019036e+09 
  186500 1.0258338e+09 1.003136e+09 
  186600 1.0262056e+09 1.0031778e+09 
  186700 1.0390154e+09 1.0156761e+09 
  186800 1.0319424e+09 1.0085176e+09 
  186900 1.0240643e+09 1.000655e+09 
  187000 1.0253041e+09 1.0026746e+09 
Loop time of 680.62 on 6 procs for 1000 steps with 31755 atoms

Pair  time (%) = 601.129 (88.3207)
Bond  time (%) = 0.783944 (0.115181)
Neigh time (%) = 5.17574 (0.760445)
Comm  time (%) = 36.5177 (5.36536)
Outpt time (%) = 2.10787 (0.309698)
Other time (%) = 34.9062 (5.12859)

Nlocal:    5292.5 ave 5472 max 5061 min
Histogram: 1 0 0 0 1 0 2 1 0 1
Nghost:    7839.17 ave 8080 max 7470 min
Histogram: 1 0 0 1 0 0 1 0 2 1
Neighs:    303028 ave 322750 max 279065 min
Histogram: 1 0 0 1 0 1 1 1 0 1
FullNghs: 606057 ave 645084 max 558229 min
Histogram: 1 0 0 1 0 1 1 1 0 1

Total # of neighbors = 3636342
Ave neighs/atom = 114.512
Ave special neighs/atom = 5.09986
Neighbor list builds = 100
Dangerous builds = 100
velocity all zero linear
WARNING: Use special bonds = 0,1,1 with bond style fene (bond_fene.cpp:189)
Memory usage per processor = 18.891 Mbytes
Step sdpd_kin pTemp 
  187000 1.0253041e+09 1.0026746e+09 
  187100 1.0238187e+09 1.0009205e+09 
  187200 1.0283766e+09 1.0056417e+09 
  187300 1.0189967e+09 9.9601701e+08 
  187400 1.0319237e+09 1.0083294e+09 
  187500 1.0268533e+09 1.0037529e+09 
  187600 1.0262767e+09 1.002795e+09 
  187700 1.0260198e+09 1.0026455e+09 
  187800 1.0253025e+09 1.0014119e+09 
  187900 1.0263129e+09 1.0025169e+09 
  188000 1.0252103e+09 1.0016262e+09 
Loop time of 692.233 on 6 procs for 1000 steps with 31755 atoms

Pair  time (%) = 601.313 (86.8657)
Bond  time (%) = 0.786255 (0.113582)
Neigh time (%) = 5.14463 (0.743193)
Comm  time (%) = 47.3251 (6.83658)
Outpt time (%) = 2.0904 (0.30198)
Other time (%) = 35.5733 (5.13893)

Nlocal:    5292.5 ave 5414 max 5083 min
Histogram: 1 0 0 0 0 1 2 0 0 2
Nghost:    7844.67 ave 7953 max 7455 min
Histogram: 1 0 0 0 0 0 0 0 2 3
Neighs:    300598 ave 315589 max 280733 min
Histogram: 1 0 0 0 0 2 1 1 0 1
FullNghs: 601196 ave 632024 max 560219 min
Histogram: 1 0 0 0 0 2 1 1 0 1

Total # of neighbors = 3607176
Ave neighs/atom = 113.594
Ave special neighs/atom = 5.09986
Neighbor list builds = 100
Dangerous builds = 100
velocity all zero linear
WARNING: Use special bonds = 0,1,1 with bond style fene (bond_fene.cpp:189)
Memory usage per processor = 18.891 Mbytes
Step sdpd_kin pTemp 
  188000 1.0252103e+09 1.0016262e+09 
  188100 1.0242369e+09 1.0001313e+09 
  188200 1.031196e+09 1.0076446e+09 
  188300 1.0319917e+09 1.0083946e+09 
  188400 1.0312571e+09 1.0068296e+09 
  188500 1.0298003e+09 1.0050819e+09 
  188600   1.0319e+09 1.0074665e+09 
  188700 1.0295532e+09 1.0051647e+09 
  188800 1.0298423e+09 1.0059675e+09 
  188900 1.0245977e+09 1.0005043e+09 
  189000 1.032588e+09 1.0086413e+09 
Loop time of 663.638 on 6 procs for 1000 steps with 31755 atoms

Pair  time (%) = 599.985 (90.4084)
Bond  time (%) = 0.790963 (0.119186)
Neigh time (%) = 5.15848 (0.777303)
Comm  time (%) = 21.1527 (3.18739)
Outpt time (%) = 2.08414 (0.314047)
Other time (%) = 34.4675 (5.19372)

Nlocal:    5292.5 ave 5364 max 5226 min
Histogram: 3 0 0 0 0 0 0 1 0 2
Nghost:    7857.83 ave 8025 max 7647 min
Histogram: 1 0 1 0 0 1 1 0 0 2
Neighs:    301556 ave 310238 max 292447 min
Histogram: 1 0 0 2 0 0 1 1 0 1
FullNghs: 603111 ave 620421 max 585583 min
Histogram: 1 0 1 1 0 0 1 1 0 1

Total # of neighbors = 3618668
Ave neighs/atom = 113.956
Ave special neighs/atom = 5.09986
Neighbor list builds = 100
Dangerous builds = 100
velocity all zero linear
WARNING: Use special bonds = 0,1,1 with bond style fene (bond_fene.cpp:189)
Memory usage per processor = 18.891 Mbytes
Step sdpd_kin pTemp 
  189000 1.032588e+09 1.0086413e+09 
  189100 1.0271041e+09 1.003239e+09 
  189200 1.0256741e+09 1.0021516e+09 
  189300 1.0243219e+09 1.0008754e+09 
  189400 1.0273014e+09 1.0033599e+09 
  189500 1.0244977e+09 1.0002877e+09 
  189600 1.0236698e+09 9.9881095e+08 
  189700 1.0255083e+09 1.000896e+09 
  189800 1.0234309e+09 9.9887764e+08 
  189900 1.0263401e+09 1.0022792e+09 
  190000 1.0267512e+09 1.0029204e+09 
Loop time of 668.947 on 6 procs for 1000 steps with 31755 atoms

Pair  time (%) = 602.251 (90.0296)
Bond  time (%) = 0.806909 (0.120624)
Neigh time (%) = 5.1726 (0.773245)
Comm  time (%) = 23.5769 (3.52448)
Outpt time (%) = 2.1152 (0.316199)
Other time (%) = 35.0248 (5.23581)

Nlocal:    5292.5 ave 5374 max 5206 min
Histogram: 2 0 0 1 0 0 0 1 1 1
Nghost:    7871.17 ave 7972 max 7691 min
Histogram: 1 0 0 0 0 1 1 1 1 1
Neighs:    301513 ave 310782 max 291431 min
Histogram: 1 1 0 1 0 0 0 1 1 1
FullNghs: 603026 ave 619766 max 583492 min
Histogram: 1 1 0 1 0 0 0 1 0 2

Total # of neighbors = 3618158
Ave neighs/atom = 113.94
Ave special neighs/atom = 5.09986
Neighbor list builds = 100
Dangerous builds = 99
velocity all zero linear
WARNING: Use special bonds = 0,1,1 with bond style fene (bond_fene.cpp:189)
Memory usage per processor = 18.891 Mbytes
Step sdpd_kin pTemp 
  190000 1.0267511e+09 1.0029204e+09 
  190100 1.0349902e+09 1.0105914e+09 
  190200 1.0254725e+09 1.0011816e+09 
  190300 1.0359389e+09 1.0122292e+09 
  190400 1.0198775e+09 9.9618668e+08 
  190500 1.0291109e+09 1.0056168e+09 
  190600 1.0193024e+09 9.9631899e+08 
  190700 1.0280936e+09 1.0049601e+09 
  190800 1.0302388e+09 1.007094e+09 
  190900 1.0186063e+09 9.9533268e+08 
  191000 1.0259955e+09 1.0023376e+09 
Loop time of 672.572 on 6 procs for 1000 steps with 31755 atoms

Pair  time (%) = 600.967 (89.3536)
Bond  time (%) = 0.802456 (0.119312)
Neigh time (%) = 5.16307 (0.767662)
Comm  time (%) = 28.3906 (4.22121)
Outpt time (%) = 2.10577 (0.313092)
Other time (%) = 35.143 (5.22516)

Nlocal:    5292.5 ave 5440 max 5199 min
Histogram: 1 1 1 1 0 1 0 0 0 1
Nghost:    7838.67 ave 8041 max 7637 min
Histogram: 1 0 1 1 0 0 1 1 0 1
Neighs:    301176 ave 316815 max 293410 min
Histogram: 2 0 1 1 1 0 0 0 0 1
FullNghs: 602352 ave 633877 max 586467 min
Histogram: 2 0 2 0 1 0 0 0 0 1

Total # of neighbors = 3614110
Ave neighs/atom = 113.812
Ave special neighs/atom = 5.09986
Neighbor list builds = 100
Dangerous builds = 100
velocity all zero linear
WARNING: Use special bonds = 0,1,1 with bond style fene (bond_fene.cpp:189)
Memory usage per processor = 18.1281 Mbytes
Step sdpd_kin pTemp 
  191000 1.0259954e+09 1.0023376e+09 
  191100 1.0218272e+09 9.977875e+08 
  191200 1.0283232e+09 1.0041916e+09 
  191300 1.0232212e+09 9.9902976e+08 
  191400 1.0279946e+09 1.0034234e+09 
  191500 1.028389e+09 1.0039183e+09 
  191600 1.0348086e+09 1.0106758e+09 
  191700 1.0283172e+09 1.0042439e+09 
  191800 1.0171006e+09 9.9356395e+08 
  191900 1.0204084e+09 9.9685063e+08 
  192000 1.0251918e+09 1.0019406e+09 
Loop time of 671.736 on 6 procs for 1000 steps with 31755 atoms

Pair  time (%) = 600.037 (89.3263)
Bond  time (%) = 0.80201 (0.119394)
Neigh time (%) = 5.15547 (0.767484)
Comm  time (%) = 28.8287 (4.29168)
Outpt time (%) = 2.12282 (0.31602)
Other time (%) = 34.7901 (5.17914)

Nlocal:    5292.5 ave 5454 max 5180 min
Histogram: 2 1 0 0 0 0 1 1 0 1
Nghost:    7819.33 ave 8207 max 7632 min
Histogram: 1 2 0 2 0 0 0 0 0 1
Neighs:    302252 ave 315902 max 290513 min
Histogram: 1 1 1 0 0 0 1 1 0 1
FullNghs: 604504 ave 630828 max 582268 min
Histogram: 1 1 1 0 0 0 0 2 0 1

Total # of neighbors = 3627022
Ave neighs/atom = 114.219
Ave special neighs/atom = 5.09986
Neighbor list builds = 100
Dangerous builds = 100
velocity all zero linear
WARNING: Use special bonds = 0,1,1 with bond style fene (bond_fene.cpp:189)
Memory usage per processor = 18.1281 Mbytes
Step sdpd_kin pTemp 
  192000 1.0251918e+09 1.0019406e+09 
  192100 1.0280183e+09 1.0050462e+09 
  192200 1.0244507e+09 1.0013078e+09 
  192300 1.0279393e+09 1.0054245e+09 
  192400 1.0330359e+09 1.0104891e+09 
  192500 1.0181058e+09 9.958729e+08 
  192600 1.0220165e+09 9.999857e+08 
  192700 1.022936e+09 1.0006753e+09 
  192800 1.0197989e+09 9.9759901e+08 
  192900 1.0241672e+09 1.0014958e+09 
  193000 1.0218628e+09 9.989756e+08 
Loop time of 680.841 on 6 procs for 1000 steps with 31755 atoms

Pair  time (%) = 604.235 (88.7483)
Bond  time (%) = 0.797952 (0.117201)
Neigh time (%) = 5.13815 (0.754677)
Comm  time (%) = 34.877 (5.12263)
Outpt time (%) = 2.11011 (0.309926)
Other time (%) = 33.6827 (4.94722)

Nlocal:    5292.5 ave 5480 max 5144 min
Histogram: 1 1 0 1 1 0 1 0 0 1
Nghost:    7764.83 ave 7974 max 7462 min
Histogram: 2 0 0 0 0 0 0 1 2 1
Neighs:    302323 ave 319505 max 290853 min
Histogram: 1 1 1 1 0 0 1 0 0 1
FullNghs: 604645 ave 639211 max 581292 min
Histogram: 2 0 1 0 1 0 1 0 0 1

Total # of neighbors = 3627872
Ave neighs/atom = 114.246
Ave special neighs/atom = 5.09986
Neighbor list builds = 100
Dangerous builds = 100
velocity all zero linear
WARNING: Use special bonds = 0,1,1 with bond style fene (bond_fene.cpp:189)
Memory usage per processor = 18.1281 Mbytes
Step sdpd_kin pTemp 
  193000 1.0218628e+09 9.989756e+08 
  193100 1.0335385e+09 1.0107975e+09 
  193200 1.0189614e+09 9.9719614e+08 
  193300 1.0196511e+09 9.9759561e+08 
  193400 1.020679e+09 9.9893617e+08 
  193500 1.0264451e+09 1.0042663e+09 
  193600 1.0236332e+09 1.0010152e+09 
  193700 1.017174e+09 9.9468554e+08 
  193800 1.0266556e+09 1.0041895e+09 
  193900 1.0261625e+09 1.0042571e+09 
  194000 1.0362988e+09 1.0145567e+09 
Loop time of 688.156 on 6 procs for 1000 steps with 31755 atoms

Pair  time (%) = 604.018 (87.7735)
Bond  time (%) = 0.808133 (0.117435)
Neigh time (%) = 5.15132 (0.748569)
Comm  time (%) = 41.206 (5.98788)
Outpt time (%) = 2.1325 (0.309887)
Other time (%) = 34.8398 (5.06278)

Nlocal:    5292.5 ave 5469 max 5116 min
Histogram: 1 0 0 1 1 1 0 1 0 1
Nghost:    7784.33 ave 7919 max 7585 min
Histogram: 1 1 0 0 0 0 1 0 1 2
Neighs:    303324 ave 320205 max 286122 min
Histogram: 1 0 0 1 2 0 0 1 0 1
FullNghs: 606649 ave 639680 max 571828 min
Histogram: 1 0 0 0 3 0 0 1 0 1

Total # of neighbors = 3639894
Ave neighs/atom = 114.624
Ave special neighs/atom = 5.09986
Neighbor list builds = 100
Dangerous builds = 100
velocity all zero linear
WARNING: Use special bonds = 0,1,1 with bond style fene (bond_fene.cpp:189)
Memory usage per processor = 18.891 Mbytes
Step sdpd_kin pTemp 
  194000 1.0362988e+09 1.0145567e+09 
  194100 1.0293404e+09 1.0074758e+09 
  194200 1.0261663e+09 1.0043853e+09 
  194300 1.0290158e+09 1.0073111e+09 
  194400 1.0246493e+09 1.0024331e+09 
  194500 1.029312e+09 1.0068471e+09 
  194600 1.0377365e+09 1.0152348e+09 
  194700 1.0203613e+09 9.9821876e+08 
  194800  1.01952e+09 9.9740267e+08 
  194900 1.0234864e+09 1.0012327e+09 
  195000 1.0315427e+09 1.0092461e+09 
Loop time of 669.725 on 6 procs for 1000 steps with 31755 atoms

Pair  time (%) = 603.363 (90.0911)
Bond  time (%) = 0.797661 (0.119103)
Neigh time (%) = 5.15732 (0.770066)
Comm  time (%) = 25.0994 (3.74772)
Outpt time (%) = 2.09539 (0.312873)
Other time (%) = 33.2125 (4.95913)

Nlocal:    5292.5 ave 5376 max 5080 min
Histogram: 1 0 0 0 0 0 0 1 2 2
Nghost:    7682.17 ave 7865 max 7520 min
Histogram: 1 0 1 0 1 2 0 0 0 1
Neighs:    302918 ave 312343 max 280619 min
Histogram: 1 0 0 0 0 0 1 2 0 2
FullNghs: 605836 ave 624515 max 561049 min
Histogram: 1 0 0 0 0 0 1 2 0 2

Total # of neighbors = 3635016
Ave neighs/atom = 114.471
Ave special neighs/atom = 5.09986
Neighbor list builds = 100
Dangerous builds = 100
velocity all zero linear
WARNING: Use special bonds = 0,1,1 with bond style fene (bond_fene.cpp:189)
Memory usage per processor = 18.891 Mbytes
Step sdpd_kin pTemp 
  195000 1.0315427e+09 1.0092461e+09 
  195100 1.025863e+09 1.0034448e+09 
  195200 1.0303305e+09 1.0079654e+09 
  195300 1.0268217e+09 1.0042039e+09 
  195400 1.0168305e+09 9.9460015e+08 
  195500 1.0312978e+09 1.008818e+09 
  195600 1.0309326e+09 1.0080493e+09 
  195700 1.0319804e+09 1.0094194e+09 
  195800 1.0317753e+09 1.0091124e+09 
  195900 1.0256001e+09 1.0023528e+09 
  196000 1.0216768e+09 9.9835544e+08 
Loop time of 670.115 on 6 procs for 1000 steps with 31755 atoms

Pair  time (%) = 601.745 (89.7972)
Bond  time (%) = 0.797192 (0.118963)
Neigh time (%) = 5.16335 (0.770517)
Comm  time (%) = 27.2555 (4.06728)
Outpt time (%) = 2.10986 (0.314851)
Other time (%) = 33.0448 (4.93121)

Nlocal:    5292.5 ave 5435 max 5075 min
Histogram: 1 0 0 0 0 1 2 1 0 1
Nghost:    7672.83 ave 7868 max 7462 min
Histogram: 1 0 0 1 1 0 1 1 0 1
Neighs:    301322 ave 310240 max 277243 min
Histogram: 1 0 0 0 0 1 0 0 1 3
FullNghs: 602644 ave 621302 max 553081 min
Histogram: 1 0 0 0 0 1 0 0 1 3

Total # of neighbors = 3615864
Ave neighs/atom = 113.868
Ave special neighs/atom = 5.09986
Neighbor list builds = 100
Dangerous builds = 100
velocity all zero linear
WARNING: Use special bonds = 0,1,1 with bond style fene (bond_fene.cpp:189)
Memory usage per processor = 18.891 Mbytes
Step sdpd_kin pTemp 
  196000 1.0216768e+09 9.9835544e+08 
  196100 1.026849e+09 1.003409e+09 
  196200 1.0316557e+09 1.0087316e+09 
  196300 1.0234934e+09 1.0004903e+09 
  196400 1.0328174e+09 1.0094808e+09 
  196500 1.0260058e+09 1.0024212e+09 
  196600 1.0323778e+09 1.0094707e+09 
  196700 1.0284729e+09 1.0056354e+09 
  196800 1.0233119e+09  1.00086e+09 
  196900 1.0338007e+09 1.0113555e+09 
  197000 1.0272104e+09 1.0049022e+09 
Loop time of 675.393 on 6 procs for 1000 steps with 31755 atoms

Pair  time (%) = 601.033 (88.99)
Bond  time (%) = 0.801065 (0.118607)
Neigh time (%) = 5.16411 (0.764607)
Comm  time (%) = 31.5045 (4.66462)
Outpt time (%) = 2.10624 (0.311854)
Other time (%) = 34.7846 (5.15027)

Nlocal:    5292.5 ave 5383 max 5087 min
Histogram: 1 0 0 0 0 0 0 2 2 1
Nghost:    7665 ave 7812 max 7508 min
Histogram: 2 0 0 0 0 1 1 0 1 1
Neighs:    302804 ave 310194 max 280244 min
Histogram: 1 0 0 0 0 0 0 1 1 3
FullNghs: 605609 ave 620444 max 561542 min
Histogram: 1 0 0 0 0 0 0 0 2 3

Total # of neighbors = 3633652
Ave neighs/atom = 114.428
Ave special neighs/atom = 5.09986
Neighbor list builds = 100
Dangerous builds = 100
velocity all zero linear
WARNING: Use special bonds = 0,1,1 with bond style fene (bond_fene.cpp:189)
Memory usage per processor = 18.891 Mbytes
Step sdpd_kin pTemp 
  197000 1.0272104e+09 1.0049022e+09 
  197100 1.0322189e+09 1.0096729e+09 
  197200 1.0208551e+09 9.980641e+08 
  197300 1.0243249e+09 1.0012406e+09 
  197400 1.0257664e+09 1.002953e+09 
  197500 1.0173187e+09 9.9474959e+08 
  197600 1.0295591e+09 1.0073585e+09 
  197700 1.0228102e+09 1.0007917e+09 
  197800 1.0152632e+09 9.9287827e+08 
  197900 1.0290359e+09 1.0064876e+09 
  198000 1.0237851e+09 1.001303e+09 
Loop time of 668.635 on 6 procs for 1000 steps with 31755 atoms

Pair  time (%) = 601.139 (89.9054)
Bond  time (%) = 0.778411 (0.116418)
Neigh time (%) = 5.15075 (0.770338)
Comm  time (%) = 26.778 (4.00487)
Outpt time (%) = 2.10248 (0.314444)
Other time (%) = 32.6864 (4.88852)

Nlocal:    5292.5 ave 5461 max 5206 min
Histogram: 2 1 0 0 2 0 0 0 0 1
Nghost:    7778 ave 7932 max 7580 min
Histogram: 1 0 0 1 1 0 1 0 0 2
Neighs:    303090 ave 323687 max 291159 min
Histogram: 2 0 1 1 0 1 0 0 0 1
FullNghs: 606181 ave 648472 max 581699 min
Histogram: 2 0 1 1 0 1 0 0 0 1

Total # of neighbors = 3637086
Ave neighs/atom = 114.536
Ave special neighs/atom = 5.09986
Neighbor list builds = 100
Dangerous builds = 100
velocity all zero linear
WARNING: Use special bonds = 0,1,1 with bond style fene (bond_fene.cpp:189)
Memory usage per processor = 18.891 Mbytes
Step sdpd_kin pTemp 
  198000 1.0237851e+09 1.001303e+09 
  198100 1.0228899e+09 1.0002207e+09 
  198200 1.0270827e+09 1.0044464e+09 
  198300 1.0326677e+09 1.0104516e+09 
  198400 1.0199347e+09 9.9735584e+08 
  198500 1.0236885e+09 1.0015871e+09 
  198600 1.0253918e+09 1.0030819e+09 
  198700 1.0281746e+09 1.0060481e+09 
  198800 1.0169461e+09 9.9412832e+08 
  198900 1.0203331e+09 9.9725103e+08 
  199000 1.0241186e+09 1.0012956e+09 
Loop time of 700.209 on 6 procs for 1000 steps with 31755 atoms

Pair  time (%) = 602.013 (85.9761)
Bond  time (%) = 0.774904 (0.110668)
Neigh time (%) = 5.13046 (0.732703)
Comm  time (%) = 56.2362 (8.03134)
Outpt time (%) = 2.11245 (0.301688)
Other time (%) = 33.9425 (4.84748)

Nlocal:    5292.5 ave 5503 max 5191 min
Histogram: 1 1 2 1 0 0 0 0 0 1
Nghost:    7827.83 ave 8011 max 7561 min
Histogram: 1 0 0 0 1 1 0 1 1 1
Neighs:    303466 ave 326510 max 290939 min
Histogram: 1 0 3 1 0 0 0 0 0 1
FullNghs: 606931 ave 652774 max 581715 min
Histogram: 1 0 3 1 0 0 0 0 0 1

Total # of neighbors = 3641588
Ave neighs/atom = 114.678
Ave special neighs/atom = 5.09986
Neighbor list builds = 100
Dangerous builds = 100
velocity all zero linear
WARNING: Use special bonds = 0,1,1 with bond style fene (bond_fene.cpp:189)
Memory usage per processor = 18.891 Mbytes
Step sdpd_kin pTemp 
  199000 1.0241186e+09 1.0012956e+09 
  199100 1.0311532e+09 1.0081524e+09 
  199200 1.0262721e+09 1.0032939e+09 
  199300 1.0237904e+09 1.0004999e+09 
  199400 1.0371928e+09 1.013629e+09 
  199500 1.0363928e+09 1.0132037e+09 
  199600 1.025763e+09 1.0023784e+09 
  199700 1.0196447e+09 9.9634402e+08 
  199800 1.0265241e+09 1.0030066e+09 
  199900 1.0249132e+09 1.0013499e+09 
  200000 1.0302029e+09 1.0067308e+09 
Loop time of 676.138 on 6 procs for 1000 steps with 31755 atoms

Pair  time (%) = 603.641 (89.2778)
Bond  time (%) = 0.784241 (0.115988)
Neigh time (%) = 5.14352 (0.760721)
Comm  time (%) = 31.5691 (4.66903)
Outpt time (%) = 2.13459 (0.315704)
Other time (%) = 32.8657 (4.8608)

Nlocal:    5292.5 ave 5386 max 5186 min
Histogram: 1 0 1 1 0 0 0 1 1 1
Nghost:    7807.17 ave 7961 max 7608 min
Histogram: 1 0 1 1 0 0 0 0 1 2
Neighs:    303537 ave 312941 max 294188 min
Histogram: 1 0 1 1 1 0 0 0 0 2
FullNghs: 607075 ave 625576 max 590432 min
Histogram: 1 1 0 1 1 0 0 0 0 2

Total # of neighbors = 3642448
Ave neighs/atom = 114.705
Ave special neighs/atom = 5.09986
Neighbor list builds = 100
Dangerous builds = 99
velocity all zero linear
WARNING: Use special bonds = 0,1,1 with bond style fene (bond_fene.cpp:189)
Memory usage per processor = 18.891 Mbytes
Step sdpd_kin pTemp 
  200000 1.0302029e+09 1.0067308e+09 
  200100 1.0331075e+09 1.0098496e+09 
  200200 1.027946e+09 1.0043541e+09 
  200300 1.0299883e+09 1.0067453e+09 
  200400 1.022044e+09 9.9843103e+08 
  200500 1.0254581e+09 1.0019606e+09 
  200600 1.0259152e+09 1.0024791e+09 
  200700 1.0246345e+09 1.0012784e+09 
  200800 1.0197989e+09 9.9583673e+08 
  200900 1.029999e+09 1.0060972e+09 
  201000 1.0278234e+09 1.0046042e+09 
Loop time of 669.776 on 6 procs for 1000 steps with 31755 atoms

Pair  time (%) = 602.662 (89.9797)
Bond  time (%) = 0.782149 (0.116778)
Neigh time (%) = 5.14685 (0.768444)
Comm  time (%) = 24.7825 (3.70012)
Outpt time (%) = 2.09979 (0.313506)
Other time (%) = 34.3022 (5.12145)

Nlocal:    5292.5 ave 5388 max 5158 min
Histogram: 1 0 0 0 1 1 1 0 0 2
Nghost:    7732 ave 7942 max 7600 min
Histogram: 2 1 0 0 0 2 0 0 0 1
Neighs:    302770 ave 315117 max 292844 min
Histogram: 2 0 0 1 1 0 0 0 1 1
FullNghs: 605541 ave 631039 max 585409 min
Histogram: 2 0 0 1 1 0 0 1 0 1

Total # of neighbors = 3633244
Ave neighs/atom = 114.415
Ave special neighs/atom = 5.09986
Neighbor list builds = 100
Dangerous builds = 100
velocity all zero linear
WARNING: Use special bonds = 0,1,1 with bond style fene (bond_fene.cpp:189)
Memory usage per processor = 18.891 Mbytes
Step sdpd_kin pTemp 
  201000 1.0278232e+09 1.0046042e+09 
  201100 1.0203867e+09 9.9718363e+08 
  201200 1.0335729e+09 1.0108782e+09 
  201300 1.0252965e+09 1.0025245e+09 
  201400 1.0235697e+09 1.0005677e+09 
  201500 1.024512e+09 1.0016934e+09 
  201600 1.0176518e+09 9.9502793e+08 
  201700 1.0228343e+09 1.000046e+09 
  201800 1.0273535e+09 1.0045491e+09 
  201900 1.0230966e+09 1.0006534e+09 
  202000 1.0235365e+09 1.0009761e+09 
Loop time of 679.136 on 6 procs for 1000 steps with 31755 atoms

Pair  time (%) = 605.548 (89.1645)
Bond  time (%) = 0.786358 (0.115788)
Neigh time (%) = 5.14797 (0.758019)
Comm  time (%) = 32.2876 (4.75422)
Outpt time (%) = 2.09079 (0.307861)
Other time (%) = 33.2748 (4.89959)

Nlocal:    5292.5 ave 5458 max 5168 min
Histogram: 1 2 0 0 1 0 0 0 1 1
Nghost:    7716.67 ave 7911 max 7543 min
Histogram: 1 1 1 0 0 0 1 1 0 1
Neighs:    303226 ave 318852 max 291458 min
Histogram: 2 1 0 0 1 0 0 0 0 2
FullNghs: 606452 ave 638485 max 584111 min
Histogram: 2 1 0 0 1 0 0 0 0 2

Total # of neighbors = 3638712
Ave neighs/atom = 114.587
Ave special neighs/atom = 5.09986
Neighbor list builds = 100
Dangerous builds = 100
velocity all zero linear
WARNING: Use special bonds = 0,1,1 with bond style fene (bond_fene.cpp:189)
Memory usage per processor = 18.1281 Mbytes
Step sdpd_kin pTemp 
  202000 1.0235356e+09 1.0009761e+09 
  202100 1.024417e+09 1.0017947e+09 
  202200 1.0249593e+09 1.0025301e+09 
  202300 1.0315896e+09 1.0098468e+09 
  202400 1.0200466e+09 9.9824091e+08 
  202500 1.026579e+09 1.0042992e+09 
  202600 1.0263275e+09 1.0040996e+09 
  202700 1.024405e+09 1.0020176e+09 
  202800 1.0309713e+09 1.0086808e+09 
  202900 1.0207618e+09 9.9824835e+08 
  203000 1.0303348e+09 1.0082165e+09 
Loop time of 689.206 on 6 procs for 1000 steps with 31755 atoms

Pair  time (%) = 603.319 (87.5383)
Bond  time (%) = 0.782544 (0.113543)
Neigh time (%) = 5.10758 (0.741083)
Comm  time (%) = 43.0708 (6.24934)
Outpt time (%) = 2.0956 (0.304061)
Other time (%) = 34.8303 (5.05369)

Nlocal:    5292.5 ave 5499 max 5068 min
Histogram: 1 0 0 2 0 1 0 0 1 1
Nghost:    7812.17 ave 7990 max 7616 min
Histogram: 1 0 1 0 1 1 0 0 1 1
Neighs:    302762 ave 323998 max 280991 min
Histogram: 1 0 0 2 1 0 0 0 1 1
FullNghs: 605525 ave 649837 max 562833 min
Histogram: 1 0 0 2 1 0 0 0 1 1

Total # of neighbors = 3633148
Ave neighs/atom = 114.412
Ave special neighs/atom = 5.09986
Neighbor list builds = 100
Dangerous builds = 100
velocity all zero linear
WARNING: Use special bonds = 0,1,1 with bond style fene (bond_fene.cpp:189)
Memory usage per processor = 18.891 Mbytes
Step sdpd_kin pTemp 
  203000 1.0303335e+09 1.0082165e+09 
  203100 1.0310857e+09 1.0085342e+09 
  203200 1.018881e+09 9.9610081e+08 
  203300 1.0267243e+09 1.0037698e+09 
  203400 1.0326923e+09 1.0094645e+09 
  203500 1.0291991e+09 1.0060163e+09 
  203600 1.0211221e+09 9.9755111e+08 
  203700 1.035035e+09 1.0113372e+09 
  203800 1.0259778e+09 1.0026646e+09 
  203900 1.0247067e+09 1.0013341e+09 
  204000 1.0251288e+09 1.0014569e+09 
Loop time of 691.602 on 6 procs for 1000 steps with 31755 atoms

Pair  time (%) = 601.185 (86.9264)
Bond  time (%) = 0.789729 (0.114188)
Neigh time (%) = 5.1233 (0.740786)
Comm  time (%) = 48.0411 (6.94634)
Outpt time (%) = 2.09108 (0.302353)
Other time (%) = 34.3718 (4.96988)

Nlocal:    5292.5 ave 5580 max 5093 min
Histogram: 1 1 0 1 1 1 0 0 0 1
Nghost:    7773.67 ave 7952 max 7659 min
Histogram: 2 1 0 0 1 0 1 0 0 1
Neighs:    301649 ave 328431 max 283397 min
Histogram: 1 0 2 0 2 0 0 0 0 1
FullNghs: 603298 ave 655670 max 566913 min
Histogram: 1 0 2 0 1 1 0 0 0 1

Total # of neighbors = 3619790
Ave neighs/atom = 113.991
Ave special neighs/atom = 5.09986
Neighbor list builds = 100
Dangerous builds = 100
velocity all zero linear
WARNING: Use special bonds = 0,1,1 with bond style fene (bond_fene.cpp:189)
Memory usage per processor = 18.891 Mbytes
Step sdpd_kin pTemp 
  204000 1.0251284e+09 1.0014569e+09 
  204100 1.0274188e+09 1.0040048e+09 
  204200 1.0334107e+09 1.0096341e+09 
  204300 1.0234581e+09 9.9979371e+08 
  204400 1.0327045e+09 1.0089688e+09 
  204500 1.0297735e+09 1.0065045e+09 
  204600 1.0358294e+09 1.0126869e+09 
  204700 1.0226213e+09 9.9949506e+08 
  204800 1.0326111e+09 1.0093315e+09 
  204900 1.0184491e+09 9.9506156e+08 
  205000 1.0270986e+09 1.0040974e+09 
Loop time of 695.948 on 6 procs for 1000 steps with 31755 atoms

Pair  time (%) = 601.58 (86.4404)
Bond  time (%) = 0.791912 (0.113789)
Neigh time (%) = 5.12873 (0.736942)
Comm  time (%) = 53.4988 (7.68719)
Outpt time (%) = 2.09587 (0.301153)
Other time (%) = 32.8524 (4.72053)

Nlocal:    5292.5 ave 5491 max 5142 min
Histogram: 2 0 0 1 1 0 0 1 0 1
Nghost:    7634.17 ave 7781 max 7481 min
Histogram: 1 0 0 0 2 2 0 0 0 1
Neighs:    302064 ave 321281 max 289347 min
Histogram: 2 0 1 0 1 0 1 0 0 1
FullNghs: 604128 ave 643195 max 578263 min
Histogram: 2 0 1 0 1 0 1 0 0 1

Total # of neighbors = 3624766
Ave neighs/atom = 114.148
Ave special neighs/atom = 5.09986
Neighbor list builds = 100
Dangerous builds = 100
velocity all zero linear
WARNING: Use special bonds = 0,1,1 with bond style fene (bond_fene.cpp:189)
Memory usage per processor = 18.891 Mbytes
Step sdpd_kin pTemp 
  205000 1.0270985e+09 1.0040974e+09 
  205100 1.0301132e+09 1.0073663e+09 
  205200 1.0287294e+09 1.0059221e+09 
  205300 1.0245548e+09 1.0015362e+09 
  205400 1.0253406e+09 1.0022911e+09 
  205500 1.0258666e+09 1.0032462e+09 
  205600 1.0274395e+09 1.0048887e+09 
  205700 1.020786e+09 9.9808556e+08 
  205800 1.0201793e+09 9.9711039e+08 
  205900 1.0295508e+09 1.0068719e+09 
  206000 1.0328329e+09 1.0096132e+09 
Loop time of 675.171 on 6 procs for 1000 steps with 31755 atoms

Pair  time (%) = 600.397 (88.9251)
Bond  time (%) = 0.79226 (0.117342)
Neigh time (%) = 5.1397 (0.761245)
Comm  time (%) = 33.0173 (4.89021)
Outpt time (%) = 2.11876 (0.313811)
Other time (%) = 33.7063 (4.99226)

Nlocal:    5292.5 ave 5389 max 5204 min
Histogram: 1 1 0 0 1 0 2 0 0 1
Nghost:    7669.17 ave 7963 max 7397 min
Histogram: 1 0 0 2 1 0 0 1 0 1
Neighs:    302262 ave 315262 max 291805 min
Histogram: 2 0 0 1 0 0 2 0 0 1
FullNghs: 604525 ave 630701 max 584793 min
Histogram: 2 0 1 0 0 1 1 0 0 1

Total # of neighbors = 3627150
Ave neighs/atom = 114.223
Ave special neighs/atom = 5.09986
Neighbor list builds = 100
Dangerous builds = 100
velocity all zero linear
WARNING: Use special bonds = 0,1,1 with bond style fene (bond_fene.cpp:189)
Memory usage per processor = 18.891 Mbytes
Step sdpd_kin pTemp 
  206000 1.0328328e+09 1.0096132e+09 
  206100 1.0261953e+09 1.0034475e+09 
  206200 1.0264146e+09 1.0039462e+09 
  206300 1.026792e+09 1.0046454e+09 
  206400 1.0337263e+09 1.0120022e+09 
  206500 1.0213074e+09 9.9978674e+08 
  206600 1.0193033e+09 9.9737132e+08 
  206700 1.0339733e+09 1.012255e+09 
  206800 1.0274461e+09 1.0055818e+09 
  206900 1.0243327e+09 1.0025091e+09 
  207000 1.0250235e+09 1.0027346e+09 
Loop time of 665.821 on 6 procs for 1000 steps with 31755 atoms

Pair  time (%) = 600.66 (90.2134)
Bond  time (%) = 0.790404 (0.118711)
Neigh time (%) = 5.1498 (0.773451)
Comm  time (%) = 23.5588 (3.53831)
Outpt time (%) = 2.11474 (0.317614)
Other time (%) = 33.5472 (5.03847)

Nlocal:    5292.5 ave 5440 max 5183 min
Histogram: 1 2 0 0 0 0 2 0 0 1
Nghost:    7664.5 ave 7883 max 7490 min
Histogram: 1 1 0 0 1 2 0 0 0 1
Neighs:    301932 ave 314759 max 289619 min
Histogram: 1 1 1 0 0 0 0 1 1 1
FullNghs: 603865 ave 629957 max 579401 min
Histogram: 1 1 1 0 0 0 0 1 1 1

Total # of neighbors = 3623188
Ave neighs/atom = 114.098
Ave special neighs/atom = 5.09986
Neighbor list builds = 100
Dangerous builds = 100
velocity all zero linear
WARNING: Use special bonds = 0,1,1 with bond style fene (bond_fene.cpp:189)
Memory usage per processor = 18.891 Mbytes
Step sdpd_kin pTemp 
  207000 1.025023e+09 1.0027346e+09 
  207100 1.0316223e+09 1.0099186e+09 
  207200 1.0276911e+09 1.0052622e+09 
  207300 1.033112e+09 1.0106358e+09 
  207400 1.0222311e+09 9.9933949e+08 
  207500 1.0295544e+09 1.0069126e+09 
  207600 1.0295568e+09 1.0070683e+09 
  207700 1.0271275e+09 1.0047854e+09 
  207800 1.0228205e+09 1.0003104e+09 
  207900 1.0282396e+09 1.0057503e+09 
  208000 1.0245459e+09 1.0016758e+09 
Loop time of 671.87 on 6 procs for 1000 steps with 31755 atoms

Pair  time (%) = 601.479 (89.5232)
Bond  time (%) = 0.786484 (0.117059)
Neigh time (%) = 5.14845 (0.766287)
Comm  time (%) = 29.4086 (4.37713)
Outpt time (%) = 2.10113 (0.312729)
Other time (%) = 32.9457 (4.90358)

Nlocal:    5292.5 ave 5385 max 5211 min
Histogram: 2 0 0 1 0 1 0 0 1 1
Nghost:    7758.67 ave 8027 max 7400 min
Histogram: 1 0 0 0 2 0 0 2 0 1
Neighs:    301878 ave 315560 max 292756 min
Histogram: 2 0 0 1 1 1 0 0 0 1
FullNghs: 603756 ave 630303 max 586813 min
Histogram: 2 0 1 0 1 1 0 0 0 1

Total # of neighbors = 3622536
Ave neighs/atom = 114.078
Ave special neighs/atom = 5.09986
Neighbor list builds = 100
Dangerous builds = 100
velocity all zero linear
WARNING: Use special bonds = 0,1,1 with bond style fene (bond_fene.cpp:189)
Memory usage per processor = 18.5096 Mbytes
Step sdpd_kin pTemp 
  208000 1.024545e+09 1.0016758e+09 
  208100 1.0269003e+09 1.0039166e+09 
  208200 1.0271978e+09 1.004442e+09 
  208300 1.0249494e+09 1.0020966e+09 
  208400 1.0261866e+09 1.0038527e+09 
  208500 1.0309148e+09 1.0090053e+09 
  208600 1.0264402e+09 1.0036968e+09 
  208700 1.0129302e+09 9.9044648e+08 
  208800 1.028317e+09 1.0060672e+09 
  208900 1.0185908e+09 9.9640521e+08 
  209000  1.02912e+09 1.0068113e+09 
Loop time of 671.963 on 6 procs for 1000 steps with 31755 atoms

Pair  time (%) = 601.642 (89.535)
Bond  time (%) = 0.786011 (0.116972)
Neigh time (%) = 5.15912 (0.767769)
Comm  time (%) = 28.5342 (4.2464)
Outpt time (%) = 2.09309 (0.311489)
Other time (%) = 33.7484 (5.02236)

Nlocal:    5292.5 ave 5387 max 5240 min
Histogram: 2 0 0 2 1 0 0 0 0 1
Nghost:    7885.5 ave 8140 max 7743 min
Histogram: 2 1 0 0 1 1 0 0 0 1
Neighs:    303656 ave 311179 max 292824 min
Histogram: 1 0 0 0 0 1 2 1 0 1
FullNghs: 607311 ave 624096 max 585869 min
Histogram: 1 0 0 0 1 0 3 0 0 1

Total # of neighbors = 3643868
Ave neighs/atom = 114.749
Ave special neighs/atom = 5.09986
Neighbor list builds = 100
Dangerous builds = 100
velocity all zero linear
WARNING: Use special bonds = 0,1,1 with bond style fene (bond_fene.cpp:189)
Memory usage per processor = 18.891 Mbytes
Step sdpd_kin pTemp 
  209000 1.0291197e+09 1.0068113e+09 
  209100 1.0223503e+09 1.0001912e+09 
  209200 1.0254302e+09 1.0032064e+09 
  209300 1.0248817e+09 1.0026569e+09 
  209400 1.028362e+09 1.0056377e+09 
  209500 1.0273623e+09 1.0049235e+09 
  209600 1.0185908e+09 9.9546869e+08 
  209700 1.0226079e+09 1.0000173e+09 
  209800 1.0265788e+09 1.0042202e+09 
  209900 1.0369161e+09 1.0143717e+09 
  210000 1.0240017e+09 1.0016285e+09 
Loop time of 672.512 on 6 procs for 1000 steps with 31755 atoms

Pair  time (%) = 605.532 (90.0403)
Bond  time (%) = 0.818334 (0.121683)
Neigh time (%) = 5.18251 (0.770621)
Comm  time (%) = 24.5023 (3.64341)
Outpt time (%) = 2.13517 (0.317492)
Other time (%) = 34.3415 (5.10646)

Nlocal:    5292.5 ave 5361 max 5207 min
Histogram: 1 0 1 0 0 2 0 0 0 2
Nghost:    7822.83 ave 8055 max 7590 min
Histogram: 1 1 0 1 0 0 1 1 0 1
Neighs:    303161 ave 313720 max 290759 min
Histogram: 1 0 0 1 0 2 0 0 1 1
FullNghs: 606322 ave 627113 max 583885 min
Histogram: 1 0 0 1 1 1 0 1 0 1

Total # of neighbors = 3637930
Ave neighs/atom = 114.562
Ave special neighs/atom = 5.09986
Neighbor list builds = 100
Dangerous builds = 99
velocity all zero linear
WARNING: Use special bonds = 0,1,1 with bond style fene (bond_fene.cpp:189)
Memory usage per processor = 18.891 Mbytes
Step sdpd_kin pTemp 
  210000 1.0240013e+09 1.0016285e+09 
  210100 1.0249499e+09 1.003649e+09 
  210200 1.0185741e+09 9.9684741e+08 
  210300 1.0245139e+09 1.0028287e+09 
  210400 1.0241518e+09 1.0020705e+09 
  210500 1.0275023e+09 1.005545e+09 
  210600 1.021165e+09 9.9918756e+08 
  210700 1.0277045e+09 1.0060099e+09 
  210800 1.0276079e+09 1.0057449e+09 
  210900 1.0279039e+09 1.0058029e+09 
  211000 1.0266235e+09 1.0046937e+09 
Loop time of 676.419 on 6 procs for 1000 steps with 31755 atoms

Pair  time (%) = 602.054 (89.0061)
Bond  time (%) = 0.78781 (0.116468)
Neigh time (%) = 5.14818 (0.761093)
Comm  time (%) = 31.8804 (4.7131)
Outpt time (%) = 2.11068 (0.312036)
Other time (%) = 34.438 (5.09122)

Nlocal:    5292.5 ave 5438 max 5072 min
Histogram: 1 0 0 0 1 1 0 1 1 1
Nghost:    7875.17 ave 8079 max 7686 min
Histogram: 1 0 1 1 0 1 0 0 1 1
Neighs:    303338 ave 319631 max 281289 min
Histogram: 1 0 0 1 1 0 0 1 1 1
FullNghs: 606675 ave 638403 max 563291 min
Histogram: 1 0 0 1 1 0 0 1 1 1

Total # of neighbors = 3640052
Ave neighs/atom = 114.629
Ave special neighs/atom = 5.09986
Neighbor list builds = 100
Dangerous builds = 100
velocity all zero linear
WARNING: Use special bonds = 0,1,1 with bond style fene (bond_fene.cpp:189)
Memory usage per processor = 18.891 Mbytes
Step sdpd_kin pTemp 
  211000 1.0266228e+09 1.0046937e+09 
  211100 1.019568e+09 9.9763726e+08 
  211200 1.0256257e+09 1.0036759e+09 
  211300 1.0252198e+09 1.0030127e+09 
  211400 1.0272654e+09 1.0052999e+09 
  211500 1.0252922e+09 1.0028534e+09 
  211600 1.0284739e+09 1.0059222e+09 
  211700 1.0278671e+09 1.0052277e+09 
  211800 1.0213075e+09 9.9925285e+08 
  211900 1.0239222e+09 1.0016528e+09 
  212000 1.0227063e+09 1.0004317e+09 
Loop time of 698.122 on 6 procs for 1000 steps with 31755 atoms

Pair  time (%) = 603.478 (86.443)
Bond  time (%) = 0.792569 (0.113529)
Neigh time (%) = 5.159 (0.738983)
Comm  time (%) = 50.3935 (7.21844)
Outpt time (%) = 2.11539 (0.303011)
Other time (%) = 36.1841 (5.18305)

Nlocal:    5292.5 ave 5479 max 5063 min
Histogram: 1 1 0 0 0 1 0 1 1 1
Nghost:    7846.17 ave 7923 max 7773 min
Histogram: 3 0 0 0 0 0 0 0 0 3
Neighs:    302919 ave 323037 max 276720 min
Histogram: 1 0 0 1 0 1 1 0 1 1
FullNghs: 605837 ave 646266 max 553479 min
Histogram: 1 0 0 1 0 1 1 0 1 1

Total # of neighbors = 3635024
Ave neighs/atom = 114.471
Ave special neighs/atom = 5.09986
Neighbor list builds = 100
Dangerous builds = 100
velocity all zero linear
WARNING: Use special bonds = 0,1,1 with bond style fene (bond_fene.cpp:189)
Memory usage per processor = 18.1281 Mbytes
Step sdpd_kin pTemp 
  212000 1.0227058e+09 1.0004317e+09 
  212100 1.0216298e+09 9.9939499e+08 
  212200 1.0338449e+09 1.0124637e+09 
  212300 1.0152137e+09 9.9381981e+08 
  212400 1.0192209e+09 9.9766899e+08 
  212500 1.0354492e+09 1.0139936e+09 
  212600 1.0196478e+09 9.9846707e+08 
  212700 1.0266784e+09 1.0050888e+09 
  212800 1.0347261e+09 1.0129825e+09 
  212900 1.0284208e+09 1.0067113e+09 
  213000 1.0143651e+09 9.9261726e+08 
Loop time of 686.962 on 6 procs for 1000 steps with 31755 atoms

Pair  time (%) = 603.56 (87.8593)
Bond  time (%) = 0.792729 (0.115396)
Neigh time (%) = 5.14432 (0.748851)
Comm  time (%) = 40.9999 (5.9683)
Outpt time (%) = 2.11368 (0.307685)
Other time (%) = 34.3512 (5.00046)

Nlocal:    5292.5 ave 5439 max 5050 min
Histogram: 1 0 0 1 0 1 0 0 0 3
Nghost:    7785.83 ave 7958 max 7606 min
Histogram: 1 0 0 1 1 1 1 0 0 1
Neighs:    303382 ave 319849 max 276364 min
Histogram: 1 0 0 1 0 1 0 0 1 2
FullNghs: 606764 ave 640438 max 551836 min
Histogram: 1 0 0 1 0 1 0 0 1 2

Total # of neighbors = 3640582
Ave neighs/atom = 114.646
Ave special neighs/atom = 5.09986
Neighbor list builds = 100
Dangerous builds = 100
velocity all zero linear
WARNING: Use special bonds = 0,1,1 with bond style fene (bond_fene.cpp:189)
Memory usage per processor = 18.1281 Mbytes
Step sdpd_kin pTemp 
  213000 1.0143648e+09 9.9261726e+08 
  213100 1.0182218e+09 9.967806e+08 
  213200 1.026867e+09 1.0051349e+09 
  213300   1.0143e+09 9.9292189e+08 
  213400 1.0209103e+09 9.9962938e+08 
  213500 1.0253714e+09 1.0043203e+09 
  213600 1.0344383e+09 1.0130992e+09 
  213700 1.0349611e+09 1.0135293e+09 
  213800 1.0239455e+09 1.0023324e+09 
  213900 1.0220494e+09 1.0006468e+09 
  214000 1.0306777e+09 1.0087147e+09 
Loop time of 676.212 on 6 procs for 1000 steps with 31755 atoms

Pair  time (%) = 602.468 (89.0946)
Bond  time (%) = 0.776952 (0.114898)
Neigh time (%) = 5.13337 (0.759137)
Comm  time (%) = 31.7943 (4.70182)
Outpt time (%) = 2.09468 (0.309768)
Other time (%) = 33.9441 (5.01974)

Nlocal:    5292.5 ave 5427 max 5120 min
Histogram: 1 0 0 2 0 0 0 0 2 1
Nghost:    7835.83 ave 8022 max 7564 min
Histogram: 1 0 0 1 0 0 2 0 0 2
Neighs:    303446 ave 314939 max 289172 min
Histogram: 1 0 0 2 0 0 0 1 1 1
FullNghs: 606891 ave 630609 max 578305 min
Histogram: 1 0 0 2 0 0 0 1 1 1

Total # of neighbors = 3641348
Ave neighs/atom = 114.67
Ave special neighs/atom = 5.09986
Neighbor list builds = 100
Dangerous builds = 100
velocity all zero linear
WARNING: Use special bonds = 0,1,1 with bond style fene (bond_fene.cpp:189)
Memory usage per processor = 18.891 Mbytes
Step sdpd_kin pTemp 
  214000 1.0306775e+09 1.0087147e+09 
  214100 1.0307991e+09 1.0093167e+09 
  214200 1.0324115e+09 1.0108856e+09 
  214300 1.0247462e+09 1.0034026e+09 
  214400 1.0209317e+09 9.9948709e+08 
  214500 1.0196576e+09 9.9868323e+08 
  214600 1.0209626e+09 9.994855e+08 
  214700 1.0309443e+09 1.0095106e+09 
  214800 1.0274381e+09 1.0063427e+09 
  214900 1.0284345e+09 1.0072849e+09 
  215000 1.0171904e+09 9.9596212e+08 
Loop time of 661.988 on 6 procs for 1000 steps with 31755 atoms

Pair  time (%) = 599.92 (90.624)
Bond  time (%) = 0.803371 (0.121357)
Neigh time (%) = 5.17026 (0.78102)
Comm  time (%) = 19.4486 (2.9379)
Outpt time (%) = 2.09952 (0.317153)
Other time (%) = 34.5465 (5.21859)

Nlocal:    5292.5 ave 5351 max 5197 min
Histogram: 1 1 0 0 0 0 0 0 2 2
Nghost:    7848 ave 8016 max 7705 min
Histogram: 2 0 1 0 1 0 0 0 0 2
Neighs:    301384 ave 312956 max 288324 min
Histogram: 1 0 1 0 0 1 1 1 0 1
FullNghs: 602769 ave 626801 max 575356 min
Histogram: 1 0 1 0 0 1 1 1 0 1

Total # of neighbors = 3616612
Ave neighs/atom = 113.891
Ave special neighs/atom = 5.09986
Neighbor list builds = 100
Dangerous builds = 100
velocity all zero linear
WARNING: Use special bonds = 0,1,1 with bond style fene (bond_fene.cpp:189)
Memory usage per processor = 18.891 Mbytes
Step sdpd_kin pTemp 
  215000 1.0171902e+09 9.9596212e+08 
  215100 1.0215555e+09 1.000478e+09 
  215200 1.0244365e+09 1.0033006e+09 
  215300 1.0256245e+09 1.0043759e+09 
  215400 1.0309429e+09 1.0104298e+09 
  215500 1.0245225e+09 1.0046155e+09 
  215600 1.0178445e+09 9.9789677e+08 
  215700 1.0262235e+09 1.0060218e+09 
  215800 1.0199462e+09 9.9989521e+08 
  215900 1.0305408e+09 1.0103044e+09 
  216000 1.0222703e+09 1.0021657e+09 
Loop time of 669.2 on 6 procs for 1000 steps with 31755 atoms

Pair  time (%) = 601.571 (89.8941)
Bond  time (%) = 0.8032 (0.120024)
Neigh time (%) = 5.16099 (0.771218)
Comm  time (%) = 25.7379 (3.84606)
Outpt time (%) = 2.12498 (0.31754)
Other time (%) = 33.8019 (5.05108)

Nlocal:    5292.5 ave 5446 max 5049 min
Histogram: 1 0 0 1 0 0 0 2 1 1
Nghost:    7651 ave 7816 max 7540 min
Histogram: 1 1 0 1 2 0 0 0 0 1
Neighs:    301815 ave 314650 max 274945 min
Histogram: 1 0 0 0 1 0 0 1 1 2
FullNghs: 603631 ave 630599 max 548354 min
Histogram: 1 0 0 0 1 0 0 1 1 2

Total # of neighbors = 3621784
Ave neighs/atom = 114.054
Ave special neighs/atom = 5.09986
Neighbor list builds = 100
Dangerous builds = 100
velocity all zero linear
WARNING: Use special bonds = 0,1,1 with bond style fene (bond_fene.cpp:189)
Memory usage per processor = 18.891 Mbytes
Step sdpd_kin pTemp 
  216000 1.0222699e+09 1.0021657e+09 
  216100 1.0175356e+09 9.9706715e+08 
  216200 1.0195402e+09 9.9919258e+08 
  216300 1.0175389e+09 9.969702e+08 
  216400 1.0376563e+09 1.0175576e+09 
  216500 1.0232096e+09 1.002943e+09 
  216600 1.0247513e+09 1.0045185e+09 
  216700 1.0277612e+09 1.0069013e+09 
  216800 1.0258056e+09 1.0049113e+09 
  216900 1.0224243e+09 1.0018018e+09 
  217000 1.0240201e+09 1.0032735e+09 
Loop time of 679.162 on 6 procs for 1000 steps with 31755 atoms

Pair  time (%) = 602.77 (88.7521)
Bond  time (%) = 0.787692 (0.11598)
Neigh time (%) = 5.14233 (0.757158)
Comm  time (%) = 35.0913 (5.16685)
Outpt time (%) = 2.09766 (0.30886)
Other time (%) = 33.2727 (4.89908)

Nlocal:    5292.5 ave 5474 max 5164 min
Histogram: 1 1 1 1 0 0 0 1 0 1
Nghost:    7747.5 ave 7983 max 7601 min
Histogram: 1 1 1 1 0 1 0 0 0 1
Neighs:    302822 ave 320470 max 287500 min
Histogram: 1 1 0 0 1 1 1 0 0 1
FullNghs: 605644 ave 641979 max 576332 min
Histogram: 1 1 0 0 2 0 1 0 0 1

Total # of neighbors = 3633862
Ave neighs/atom = 114.434
Ave special neighs/atom = 5.09986
Neighbor list builds = 100
Dangerous builds = 100
velocity all zero linear
WARNING: Use special bonds = 0,1,1 with bond style fene (bond_fene.cpp:189)
Memory usage per processor = 18.891 Mbytes
Step sdpd_kin pTemp 
  217000 1.0240199e+09 1.0032735e+09 
  217100 1.0257207e+09 1.0045253e+09 
  217200 1.0209694e+09 9.9920248e+08 
  217300 1.0236716e+09 1.0021972e+09 
  217400 1.0158477e+09 9.9416429e+08 
  217500 1.0263044e+09 1.0049698e+09 
  217600 1.0292068e+09 1.0078453e+09 
  217700 1.0257662e+09 1.0044294e+09 
  217800 1.0214303e+09 9.9950125e+08 
  217900 1.0313752e+09 1.0098596e+09 
  218000 1.023655e+09 1.0021092e+09 
Loop time of 663.068 on 6 procs for 1000 steps with 31755 atoms

Pair  time (%) = 601.41 (90.7012)
Bond  time (%) = 0.814054 (0.122771)
Neigh time (%) = 5.15073 (0.776802)
Comm  time (%) = 19.2864 (2.90867)
Outpt time (%) = 2.10097 (0.316855)
Other time (%) = 34.3055 (5.17375)

Nlocal:    5292.5 ave 5392 max 5207 min
Histogram: 2 0 1 0 0 0 0 2 0 1
Nghost:    7784 ave 7911 max 7719 min
Histogram: 2 2 0 0 0 0 1 0 0 1
Neighs:    301686 ave 307252 max 296542 min
Histogram: 1 1 1 0 1 0 0 0 0 2
FullNghs: 603371 ave 616699 max 593149 min
Histogram: 1 2 0 0 1 0 0 1 0 1

Total # of neighbors = 3620226
Ave neighs/atom = 114.005
Ave special neighs/atom = 5.09986
Neighbor list builds = 100
Dangerous builds = 100
velocity all zero linear
WARNING: Use special bonds = 0,1,1 with bond style fene (bond_fene.cpp:189)
Memory usage per processor = 18.891 Mbytes
Step sdpd_kin pTemp 
  218000 1.0236549e+09 1.0021092e+09 
  218100 1.0166518e+09 9.950284e+08 
  218200 1.0230882e+09 1.0012204e+09 
  218300 1.020583e+09 9.9901566e+08 
  218400 1.0280169e+09 1.0062933e+09 
  218500 1.0228207e+09 1.0008243e+09 
  218600 1.0281112e+09 1.0060539e+09 
  218700 1.0230666e+09 1.0008818e+09 
  218800 1.0239088e+09 1.0017403e+09 
  218900 1.0224027e+09 1.0009294e+09 
  219000 1.0349229e+09 1.0135094e+09 
Loop time of 670.249 on 6 procs for 1000 steps with 31755 atoms

Pair  time (%) = 601.722 (89.7759)
Bond  time (%) = 0.804911 (0.120091)
Neigh time (%) = 5.15958 (0.769801)
Comm  time (%) = 26.7096 (3.98503)
Outpt time (%) = 2.09111 (0.31199)
Other time (%) = 33.7618 (5.0372)

Nlocal:    5292.5 ave 5478 max 5114 min
Histogram: 1 1 0 1 0 0 1 1 0 1
Nghost:    7794 ave 7888 max 7736 min
Histogram: 2 0 0 2 0 1 0 0 0 1
Neighs:    303922 ave 323107 max 290916 min
Histogram: 1 1 1 1 0 0 1 0 0 1
FullNghs: 607843 ave 643687 max 583142 min
Histogram: 1 1 1 0 1 0 1 0 0 1

Total # of neighbors = 3647060
Ave neighs/atom = 114.85
Ave special neighs/atom = 5.09986
Neighbor list builds = 100
Dangerous builds = 100
velocity all zero linear
WARNING: Use special bonds = 0,1,1 with bond style fene (bond_fene.cpp:189)
Memory usage per processor = 18.891 Mbytes
Step sdpd_kin pTemp 
  219000 1.0349227e+09 1.0135094e+09 
  219100 1.0311902e+09 1.0092682e+09 
  219200 1.0317161e+09 1.0099891e+09 
  219300 1.0198513e+09 9.9895838e+08 
  219400 1.0229904e+09 1.0020667e+09 
  219500 1.019368e+09 9.9856218e+08 
  219600 1.0253228e+09 1.0044345e+09 
  219700 1.0282549e+09 1.0070486e+09 
  219800 1.0332596e+09 1.0119294e+09 
  219900 1.0228183e+09 1.0017729e+09 
  220000 1.0250481e+09 1.0030689e+09 
Loop time of 680.714 on 6 procs for 1000 steps with 31755 atoms

Pair  time (%) = 604.478 (88.8005)
Bond  time (%) = 0.794049 (0.116649)
Neigh time (%) = 5.14369 (0.755631)
Comm  time (%) = 34.7358 (5.10284)
Outpt time (%) = 2.12151 (0.31166)
Other time (%) = 33.4414 (4.91269)

Nlocal:    5292.5 ave 5417 max 5081 min
Histogram: 1 0 1 0 0 0 1 0 0 3
Nghost:    7783.33 ave 7871 max 7637 min
Histogram: 1 0 0 0 1 0 1 1 0 2
Neighs:    302547 ave 314603 max 281010 min
Histogram: 1 0 1 0 0 0 1 0 0 3
FullNghs: 605094 ave 628829 max 562182 min
Histogram: 1 0 1 0 0 0 1 0 0 3

Total # of neighbors = 3630564
Ave neighs/atom = 114.33
Ave special neighs/atom = 5.09986
Neighbor list builds = 100
Dangerous builds = 99
velocity all zero linear
WARNING: Use special bonds = 0,1,1 with bond style fene (bond_fene.cpp:189)
Memory usage per processor = 18.1281 Mbytes
Step sdpd_kin pTemp 
  220000 1.025048e+09 1.0030689e+09 
  220100 1.024274e+09 1.0029358e+09 
  220200 1.0250044e+09 1.0036184e+09 
  220300 1.0273837e+09 1.0064688e+09 
  220400  1.03306e+09 1.0115645e+09 
  220500 1.0253277e+09 1.0044486e+09 
  220600 1.024526e+09 1.0035322e+09 
  220700 1.024864e+09 1.0045041e+09 
  220800 1.0189428e+09 9.9888864e+08 
  220900 1.0218122e+09 1.0020624e+09 
  221000 1.0257187e+09 1.0050364e+09 
Loop time of 670.114 on 6 procs for 1000 steps with 31755 atoms

Pair  time (%) = 602.892 (89.9685)
Bond  time (%) = 0.81118 (0.121051)
Neigh time (%) = 5.18744 (0.774113)
Comm  time (%) = 25.5305 (3.80987)
Outpt time (%) = 2.11682 (0.31589)
Other time (%) = 33.5765 (5.01057)

Nlocal:    5292.5 ave 5411 max 5157 min
Histogram: 1 1 0 0 1 0 1 0 1 1
Nghost:    7852.33 ave 8081 max 7581 min
Histogram: 1 0 0 0 2 1 0 1 0 1
Neighs:    302452 ave 314041 max 285653 min
Histogram: 1 0 0 1 1 0 0 1 0 2
FullNghs: 604904 ave 629299 max 571439 min
Histogram: 1 0 0 1 1 0 0 1 0 2

Total # of neighbors = 3629426
Ave neighs/atom = 114.295
Ave special neighs/atom = 5.09986
Neighbor list builds = 100
Dangerous builds = 100
velocity all zero linear
WARNING: Use special bonds = 0,1,1 with bond style fene (bond_fene.cpp:189)
Memory usage per processor = 18.1281 Mbytes
Step sdpd_kin pTemp 
  221000 1.0257186e+09 1.0050364e+09 
  221100 1.0239972e+09 1.0036671e+09 
  221200 1.0254596e+09 1.0052922e+09 
  221300 1.0273955e+09 1.0070394e+09 
  221400 1.0299289e+09 1.0092472e+09 
  221500 1.018864e+09 9.9819257e+08 
  221600 1.0234158e+09 1.0024597e+09 
  221700 1.0193685e+09 9.9887577e+08 
  221800 1.0304458e+09 1.009738e+09 
  221900 1.0134784e+09 9.9296787e+08 
  222000 1.030754e+09 1.0100411e+09 
Loop time of 667.403 on 6 procs for 1000 steps with 31755 atoms

Pair  time (%) = 599.462 (89.82)
Bond  time (%) = 0.788986 (0.118217)
Neigh time (%) = 5.15056 (0.771731)
Comm  time (%) = 26.8914 (4.02926)
Outpt time (%) = 2.11507 (0.31691)
Other time (%) = 32.9954 (4.94385)

Nlocal:    5292.5 ave 5391 max 5206 min
Histogram: 2 0 0 1 0 0 1 1 0 1
Nghost:    7867.83 ave 7990 max 7697 min
Histogram: 1 0 1 0 1 0 0 0 0 3
Neighs:    301734 ave 315697 max 291880 min
Histogram: 2 0 1 0 0 1 1 0 0 1
FullNghs: 603468 ave 630362 max 583880 min
Histogram: 2 0 1 0 0 0 2 0 0 1

Total # of neighbors = 3620810
Ave neighs/atom = 114.023
Ave special neighs/atom = 5.09986
Neighbor list builds = 100
Dangerous builds = 100
velocity all zero linear
WARNING: Use special bonds = 0,1,1 with bond style fene (bond_fene.cpp:189)
Memory usage per processor = 18.891 Mbytes
Step sdpd_kin pTemp 
  222000 1.030754e+09 1.0100411e+09 
  222100 1.0229239e+09 1.0028502e+09 
  222200 1.0243954e+09 1.0045949e+09 
  222300 1.0148677e+09 9.9456789e+08 
  222400 1.028039e+09 1.0081645e+09 
  222500 1.0204587e+09 1.0004673e+09 
  222600 1.0227961e+09 1.0031142e+09 
  222700 1.0265453e+09 1.0071938e+09 
  222800 1.0187826e+09 9.9907109e+08 
  222900 1.0262839e+09 1.0064711e+09 
  223000 1.021284e+09 1.0018623e+09 
Loop time of 668.023 on 6 procs for 1000 steps with 31755 atoms

Pair  time (%) = 600.831 (89.9417)
Bond  time (%) = 0.801944 (0.120047)
Neigh time (%) = 5.18647 (0.776391)
Comm  time (%) = 23.7558 (3.55613)
Outpt time (%) = 2.1211 (0.317519)
Other time (%) = 35.3266 (5.28822)

Nlocal:    5292.5 ave 5371 max 5183 min
Histogram: 1 0 1 0 0 1 0 1 0 2
Nghost:    7933.33 ave 8086 max 7684 min
Histogram: 1 0 1 0 0 1 0 0 0 3
Neighs:    301594 ave 311979 max 294774 min
Histogram: 3 0 0 0 1 0 0 0 1 1
FullNghs: 603188 ave 622816 max 588063 min
Histogram: 2 1 0 0 0 1 0 0 1 1

Total # of neighbors = 3619128
Ave neighs/atom = 113.97
Ave special neighs/atom = 5.09986
Neighbor list builds = 100
Dangerous builds = 100
velocity all zero linear
WARNING: Use special bonds = 0,1,1 with bond style fene (bond_fene.cpp:189)
Memory usage per processor = 18.891 Mbytes
Step sdpd_kin pTemp 
  223000 1.021284e+09 1.0018623e+09 
  223100 1.0159428e+09 9.9653934e+08 
  223200  1.02083e+09 1.0012138e+09 
  223300 1.0187349e+09 9.9906842e+08 
  223400 1.0214819e+09 1.0020805e+09 
  223500 1.0214337e+09 1.0024838e+09 
  223600 1.0240898e+09 1.0054007e+09 
  223700 1.0237225e+09 1.0043046e+09 
  223800 1.0295319e+09 1.0096011e+09 
  223900 1.0303195e+09 1.0111415e+09 
  224000 1.0243012e+09 1.0042789e+09 
Loop time of 677.504 on 6 procs for 1000 steps with 31755 atoms

Pair  time (%) = 603.055 (89.0113)
Bond  time (%) = 0.798969 (0.117928)
Neigh time (%) = 5.15464 (0.760828)
Comm  time (%) = 31.6404 (4.67014)
Outpt time (%) = 2.11073 (0.311546)
Other time (%) = 34.7442 (5.12826)

Nlocal:    5292.5 ave 5407 max 5165 min
Histogram: 1 0 0 2 1 0 0 0 0 2
Nghost:    7796 ave 8133 max 7579 min
Histogram: 1 1 1 1 0 1 0 0 0 1
Neighs:    302448 ave 313160 max 293272 min
Histogram: 1 1 0 2 0 0 0 0 1 1
FullNghs: 604896 ave 627658 max 588070 min
Histogram: 2 0 0 2 0 0 0 0 1 1

Total # of neighbors = 3629374
Ave neighs/atom = 114.293
Ave special neighs/atom = 5.09986
Neighbor list builds = 100
Dangerous builds = 100
velocity all zero linear
WARNING: Use special bonds = 0,1,1 with bond style fene (bond_fene.cpp:189)
Memory usage per processor = 18.891 Mbytes
Step sdpd_kin pTemp 
  224000 1.024301e+09 1.0042789e+09 
  224100 1.0245652e+09 1.0051628e+09 
  224200 1.0229905e+09 1.0033894e+09 
  224300 1.0235269e+09 1.0042701e+09 
  224400 1.025201e+09 1.0056462e+09 
  224500 1.0221627e+09 1.0031762e+09 
  224600 1.0316873e+09 1.0126788e+09 
  224700 1.0154546e+09 9.9633907e+08 
  224800 1.0208159e+09 1.001948e+09 
  224900 1.0246075e+09   1.0051e+09 
  225000 1.0226428e+09 1.0029807e+09 
Loop time of 683.62 on 6 procs for 1000 steps with 31755 atoms

Pair  time (%) = 604.824 (88.4737)
Bond  time (%) = 0.812928 (0.118915)
Neigh time (%) = 5.17154 (0.756492)
Comm  time (%) = 36.0133 (5.26803)
Outpt time (%) = 2.09502 (0.306459)
Other time (%) = 34.7032 (5.07639)

Nlocal:    5292.5 ave 5547 max 5206 min
Histogram: 3 1 1 0 0 0 0 0 0 1
Nghost:    7697.33 ave 7926 max 7601 min
Histogram: 3 1 0 0 1 0 0 0 0 1
Neighs:    302854 ave 326596 max 295598 min
Histogram: 4 0 1 0 0 0 0 0 0 1
FullNghs: 605708 ave 653529 max 590548 min
Histogram: 4 0 1 0 0 0 0 0 0 1

Total # of neighbors = 3634246
Ave neighs/atom = 114.446
Ave special neighs/atom = 5.09986
Neighbor list builds = 100
Dangerous builds = 100
velocity all zero linear
WARNING: Use special bonds = 0,1,1 with bond style fene (bond_fene.cpp:189)
Memory usage per processor = 18.891 Mbytes
Step sdpd_kin pTemp 
  225000 1.0226428e+09 1.0029807e+09 
  225100 1.0355847e+09 1.0160223e+09 
  225200 1.0306202e+09 1.0106523e+09 
  225300 1.0268027e+09 1.0064115e+09 
  225400 1.0229265e+09 1.0023635e+09 
  225500 1.0190797e+09 9.9881278e+08 
  225600 1.0252934e+09 1.0056111e+09 
  225700 1.0211936e+09 1.0014328e+09 
  225800 1.0220003e+09 1.001722e+09 
  225900 1.0193575e+09 9.9893204e+08 
  226000 1.0176314e+09 9.9735797e+08 
Loop time of 691.109 on 6 procs for 1000 steps with 31755 atoms

Pair  time (%) = 605.806 (87.657)
Bond  time (%) = 0.81094 (0.117339)
Neigh time (%) = 5.1663 (0.747537)
Comm  time (%) = 43.1193 (6.23915)
Outpt time (%) = 2.14039 (0.309704)
Other time (%) = 34.0668 (4.92929)

Nlocal:    5292.5 ave 5453 max 5174 min
Histogram: 2 0 0 2 0 0 0 1 0 1
Nghost:    7797.67 ave 7998 max 7616 min
Histogram: 1 0 1 0 1 1 1 0 0 1
Neighs:    304280 ave 324162 max 294276 min
Histogram: 2 1 1 0 0 0 1 0 0 1
FullNghs: 608561 ave 650833 max 588420 min
Histogram: 3 0 1 0 0 0 1 0 0 1

Total # of neighbors = 3651366
Ave neighs/atom = 114.986
Ave special neighs/atom = 5.09986
Neighbor list builds = 100
Dangerous builds = 100
velocity all zero linear
WARNING: Use special bonds = 0,1,1 with bond style fene (bond_fene.cpp:189)
Memory usage per processor = 18.891 Mbytes
Step sdpd_kin pTemp 
  226000 1.0176313e+09 9.9735797e+08 
  226100 1.0284791e+09 1.0084113e+09 
  226200 1.0216176e+09 1.0011085e+09 
  226300 1.0221732e+09 1.0012334e+09 
  226400 1.0210497e+09 1.0006065e+09 
  226500 1.0349883e+09 1.0143258e+09 
  226600 1.0245107e+09 1.0041289e+09 
  226700 1.0179799e+09 9.975389e+08 
  226800 1.0255436e+09 1.0047846e+09 
  226900 1.0148856e+09 9.944175e+08 
  227000 1.0312156e+09 1.0108128e+09 
Loop time of 692.491 on 6 procs for 1000 steps with 31755 atoms

Pair  time (%) = 604.664 (87.3173)
Bond  time (%) = 0.793653 (0.114608)
Neigh time (%) = 5.1418 (0.742507)
Comm  time (%) = 45.1691 (6.5227)
Outpt time (%) = 2.09624 (0.30271)
Other time (%) = 34.6258 (5.00018)

Nlocal:    5292.5 ave 5464 max 5167 min
Histogram: 2 0 1 1 0 0 0 0 1 1
Nghost:    7787.83 ave 7925 max 7664 min
Histogram: 2 0 0 0 1 1 0 1 0 1
Neighs:    303791 ave 323784 max 291777 min
Histogram: 2 1 1 0 0 0 0 1 0 1
FullNghs: 607582 ave 648125 max 582702 min
Histogram: 1 2 1 0 0 0 0 1 0 1

Total # of neighbors = 3645494
Ave neighs/atom = 114.801
Ave special neighs/atom = 5.09986
Neighbor list builds = 100
Dangerous builds = 100
velocity all zero linear
WARNING: Use special bonds = 0,1,1 with bond style fene (bond_fene.cpp:189)
Memory usage per processor = 18.891 Mbytes
Step sdpd_kin pTemp 
  227000 1.0312155e+09 1.0108128e+09 
  227100 1.0242587e+09 1.0034827e+09 
  227200 1.0260898e+09 1.0050979e+09 
  227300  1.01847e+09 9.9784037e+08 
  227400 1.024384e+09 1.0035963e+09 
  227500 1.0205489e+09 9.9949457e+08 
  227600 1.0310607e+09 1.010412e+09 
  227700 1.0243877e+09 1.0037869e+09 
  227800 1.0299685e+09 1.0095803e+09 
  227900 1.0305439e+09 1.0101935e+09 
  228000 1.0257695e+09 1.005296e+09 
Loop time of 689.53 on 6 procs for 1000 steps with 31755 atoms

Pair  time (%) = 605.892 (87.8702)
Bond  time (%) = 0.812555 (0.117842)
Neigh time (%) = 5.16141 (0.74854)
Comm  time (%) = 40.7418 (5.90863)
Outpt time (%) = 2.13285 (0.30932)
Other time (%) = 34.7899 (5.04544)

Nlocal:    5292.5 ave 5476 max 5176 min
Histogram: 1 0 3 0 0 1 0 0 0 1
Nghost:    7898.83 ave 8089 max 7716 min
Histogram: 1 0 1 1 1 0 0 0 1 1
Neighs:    303278 ave 319473 max 290466 min
Histogram: 1 0 0 3 0 0 1 0 0 1
FullNghs: 606556 ave 639250 max 579996 min
Histogram: 1 0 1 2 0 0 1 0 0 1

Total # of neighbors = 3639336
Ave neighs/atom = 114.607
Ave special neighs/atom = 5.09986
Neighbor list builds = 100
Dangerous builds = 100
velocity all zero linear
WARNING: Use special bonds = 0,1,1 with bond style fene (bond_fene.cpp:189)
Memory usage per processor = 18.891 Mbytes
Step sdpd_kin pTemp 
  228000 1.0257694e+09 1.005296e+09 
  228100 1.0175108e+09 9.9667143e+08 
  228200 1.0236981e+09 1.0035227e+09 
  228300 1.0179589e+09 9.9764721e+08 
  228400 1.0282038e+09 1.0082978e+09 
  228500 1.0261097e+09 1.0051561e+09 
  228600 1.0240518e+09 1.0034942e+09 
  228700 1.0135066e+09 9.9325951e+08 
  228800 1.0224261e+09 1.0020881e+09 
  228900 1.0226452e+09 1.0026677e+09 
  229000 1.0194654e+09 9.9901505e+08 
Loop time of 671.317 on 6 procs for 1000 steps with 31755 atoms

Pair  time (%) = 602.419 (89.737)
Bond  time (%) = 0.803656 (0.119713)
Neigh time (%) = 5.16361 (0.769177)
Comm  time (%) = 26.8416 (3.99835)
Outpt time (%) = 2.10967 (0.314258)
Other time (%) = 33.9789 (5.06154)

Nlocal:    5292.5 ave 5423 max 5114 min
Histogram: 1 0 0 0 1 1 1 1 0 1
Nghost:    7896.67 ave 8152 max 7701 min
Histogram: 1 0 1 1 1 0 1 0 0 1
Neighs:    301414 ave 314429 max 281666 min
Histogram: 1 0 0 0 1 1 0 2 0 1
FullNghs: 602827 ave 630285 max 563405 min
Histogram: 1 0 0 0 1 1 0 2 0 1

Total # of neighbors = 3616962
Ave neighs/atom = 113.902
Ave special neighs/atom = 5.09986
Neighbor list builds = 100
Dangerous builds = 100
velocity all zero linear
WARNING: Use special bonds = 0,1,1 with bond style fene (bond_fene.cpp:189)
Memory usage per processor = 18.891 Mbytes
Step sdpd_kin pTemp 
  229000 1.0194653e+09 9.9901505e+08 
  229100 1.0240636e+09 1.0043036e+09 
  229200 1.0249656e+09 1.0045319e+09 
  229300 1.0303791e+09 1.0098479e+09 
  229400 1.0294037e+09 1.0092141e+09 
  229500 1.0246273e+09 1.0041862e+09 
  229600 1.0282286e+09 1.0075783e+09 
  229700 1.0251296e+09 1.004803e+09 
  229800 1.0239106e+09 1.0036705e+09 
  229900 1.0142438e+09 9.9349785e+08 
  230000 1.027806e+09 1.0068761e+09 
Loop time of 673.869 on 6 procs for 1000 steps with 31755 atoms

Pair  time (%) = 600.381 (89.0947)
Bond  time (%) = 0.795777 (0.118091)
Neigh time (%) = 5.14684 (0.763774)
Comm  time (%) = 31.3691 (4.65507)
Outpt time (%) = 2.11993 (0.314591)
Other time (%) = 34.0561 (5.05382)

Nlocal:    5292.5 ave 5518 max 5138 min
Histogram: 2 0 0 2 0 0 0 1 0 1
Nghost:    7732 ave 7867 max 7600 min
Histogram: 3 0 0 0 0 0 0 0 0 3
Neighs:    301649 ave 325591 max 281851 min
Histogram: 2 0 0 0 2 0 0 0 1 1
FullNghs: 603298 ave 649786 max 563655 min
Histogram: 2 0 0 0 2 0 0 0 1 1

Total # of neighbors = 3619788
Ave neighs/atom = 113.991
Ave special neighs/atom = 5.09986
Neighbor list builds = 100
Dangerous builds = 99
velocity all zero linear
WARNING: Use special bonds = 0,1,1 with bond style fene (bond_fene.cpp:189)
Memory usage per processor = 18.891 Mbytes
Step sdpd_kin pTemp 
  230000 1.0278059e+09 1.0068761e+09 
  230100 1.0242243e+09 1.0034907e+09 
  230200 1.0251429e+09 1.0041788e+09 
  230300 1.0248231e+09 1.0045016e+09 
  230400 1.0184415e+09 9.9787817e+08 
  230500 1.0201824e+09 9.9991366e+08 
  230600 1.0206358e+09 1.0001473e+09 
  230700 1.0204067e+09 1.0000408e+09 
  230800 1.0197214e+09 9.9907735e+08 
  230900 1.0173218e+09 9.9683487e+08 
  231000 1.0266383e+09 1.0055283e+09 
Loop time of 716.299 on 6 procs for 1000 steps with 31755 atoms

Pair  time (%) = 615.574 (85.9381)
Bond  time (%) = 0.855251 (0.119398)
Neigh time (%) = 5.31635 (0.742197)
Comm  time (%) = 53.1467 (7.41962)
Outpt time (%) = 2.21625 (0.309402)
Other time (%) = 39.1904 (5.47123)

Nlocal:    5292.5 ave 5545 max 5169 min
Histogram: 2 1 1 0 1 0 0 0 0 1
Nghost:    7802.33 ave 7962 max 7508 min
Histogram: 1 0 0 0 0 1 1 1 0 2
Neighs:    301377 ave 328680 max 288928 min
Histogram: 3 0 1 0 0 1 0 0 0 1
FullNghs: 602754 ave 656795 max 578213 min
Histogram: 3 0 1 0 1 0 0 0 0 1

Total # of neighbors = 3616526
Ave neighs/atom = 113.888
Ave special neighs/atom = 5.09986
Neighbor list builds = 100
Dangerous builds = 100
velocity all zero linear
WARNING: Use special bonds = 0,1,1 with bond style fene (bond_fene.cpp:189)
Memory usage per processor = 18.891 Mbytes
Step sdpd_kin pTemp 
  231000 1.0266383e+09 1.0055283e+09 
  231100 1.0228768e+09 1.0024196e+09 
  231200 1.0283718e+09 1.0075135e+09 
  231300 1.0227977e+09 1.0022059e+09 
  231400 1.0258967e+09 1.0047786e+09 
  231500 1.0296836e+09 1.0089389e+09 
  231600 1.0275419e+09 1.0069581e+09 
  231700 1.0168707e+09 9.9635627e+08 
  231800 1.0263868e+09 1.005752e+09 
  231900 1.0231559e+09 1.0023204e+09 
  232000 1.0190979e+09 9.9834335e+08 
Loop time of 715.556 on 6 procs for 1000 steps with 31755 atoms

Pair  time (%) = 609.68 (85.2037)
Bond  time (%) = 0.839552 (0.117329)
Neigh time (%) = 5.22205 (0.729789)
Comm  time (%) = 59.4594 (8.30954)
Outpt time (%) = 2.14584 (0.299885)
Other time (%) = 38.2091 (5.33977)

Nlocal:    5292.5 ave 5478 max 5093 min
Histogram: 2 0 0 0 1 0 1 0 0 2
Nghost:    7722.83 ave 7930 max 7408 min
Histogram: 1 0 0 1 0 1 0 0 1 2
Neighs:    301832 ave 321560 max 279064 min
Histogram: 1 0 1 0 1 0 1 0 0 2
FullNghs: 603664 ave 642243 max 557193 min
Histogram: 1 0 1 0 1 0 1 0 0 2

Total # of neighbors = 3621982
Ave neighs/atom = 114.06
Ave special neighs/atom = 5.09986
Neighbor list builds = 100
Dangerous builds = 100
velocity all zero linear
WARNING: Use special bonds = 0,1,1 with bond style fene (bond_fene.cpp:189)
Memory usage per processor = 18.1281 Mbytes
Step sdpd_kin pTemp 
  232000 1.0190979e+09 9.9834335e+08 
  232100 1.0221561e+09 1.001094e+09 
  232200 1.0203673e+09 9.9941806e+08 
  232300 1.0215258e+09 1.0006117e+09 
  232400 1.0240191e+09 1.0027892e+09 
  232500 1.0352702e+09 1.0141399e+09 
  232600 1.0257806e+09 1.0046545e+09 
  232700 1.0298483e+09 1.0081957e+09 
  232800 1.0244391e+09 1.0033854e+09 
  232900 1.0234298e+09 1.0024338e+09 
  233000 1.0163702e+09 9.9514054e+08 
Loop time of 690.062 on 6 procs for 1000 steps with 31755 atoms

Pair  time (%) = 601.248 (87.1296)
Bond  time (%) = 0.776916 (0.112586)
Neigh time (%) = 5.13078 (0.743524)
Comm  time (%) = 46.9876 (6.80918)
Outpt time (%) = 2.09764 (0.303978)
Other time (%) = 33.8212 (4.90118)

Nlocal:    5292.5 ave 5530 max 4958 min
Histogram: 1 1 0 0 0 0 2 0 0 2
Nghost:    7744.5 ave 8170 max 7355 min
Histogram: 2 0 0 0 1 1 0 1 0 1
Neighs:    301181 ave 325474 max 267739 min
Histogram: 1 0 1 0 0 0 2 0 0 2
FullNghs: 602363 ave 652345 max 533809 min
Histogram: 1 0 1 0 0 0 2 0 0 2

Total # of neighbors = 3614176
Ave neighs/atom = 113.814
Ave special neighs/atom = 5.09986
Neighbor list builds = 100
Dangerous builds = 100
velocity all zero linear
WARNING: Use special bonds = 0,1,1 with bond style fene (bond_fene.cpp:189)
Memory usage per processor = 18.1281 Mbytes
Step sdpd_kin pTemp 
  233000 1.0163702e+09 9.9514054e+08 
  233100 1.0280147e+09 1.0070277e+09 
  233200 1.0297764e+09 1.0091033e+09 
  233300 1.0259225e+09 1.0047702e+09 
  233400 1.0253534e+09 1.0037808e+09 
  233500 1.0253592e+09 1.0039626e+09 
  233600 1.0265428e+09 1.0047336e+09 
  233700 1.0145729e+09 9.9332592e+08 
  233800 1.0182002e+09 9.9703343e+08 
  233900 1.013905e+09 9.924145e+08 
  234000 1.0162343e+09 9.9479361e+08 
Loop time of 687.278 on 6 procs for 1000 steps with 31755 atoms

Pair  time (%) = 600.843 (87.4235)
Bond  time (%) = 0.765772 (0.111421)
Neigh time (%) = 5.10931 (0.743412)
Comm  time (%) = 42.9808 (6.25377)
Outpt time (%) = 2.10396 (0.306129)
Other time (%) = 35.4754 (5.16172)

Nlocal:    5292.5 ave 5515 max 5052 min
Histogram: 1 0 1 1 0 0 1 0 1 1
Nghost:    7638.33 ave 7811 max 7468 min
Histogram: 1 1 0 1 1 0 0 0 0 2
Neighs:    302625 ave 325716 max 278505 min
Histogram: 1 0 1 1 0 1 0 0 0 2
FullNghs: 605250 ave 652074 max 556443 min
Histogram: 1 0 1 1 0 1 0 0 0 2

Total # of neighbors = 3631498
Ave neighs/atom = 114.36
Ave special neighs/atom = 5.09986
Neighbor list builds = 100
Dangerous builds = 100
velocity all zero linear
WARNING: Use special bonds = 0,1,1 with bond style fene (bond_fene.cpp:189)
Memory usage per processor = 18.1281 Mbytes
Step sdpd_kin pTemp 
  234000 1.0162343e+09 9.9479361e+08 
  234100 1.0305605e+09 1.008911e+09 
  234200 1.0236768e+09 1.0017338e+09 
  234300 1.0280446e+09 1.0063619e+09 
  234400 1.0193481e+09 9.9688027e+08 
  234500 1.0320919e+09 1.0094773e+09 
  234600 1.0212855e+09 9.9856322e+08 
  234700 1.0199064e+09 9.9741616e+08 
  234800 1.0218703e+09 9.9967735e+08 
  234900 1.0332085e+09 1.0109794e+09 
  235000 1.028055e+09 1.005405e+09 
Loop time of 694.344 on 6 procs for 1000 steps with 31755 atoms

Pair  time (%) = 601.71 (86.6588)
Bond  time (%) = 0.762461 (0.10981)
Neigh time (%) = 5.10635 (0.735421)
Comm  time (%) = 51.7959 (7.45968)
Outpt time (%) = 2.10888 (0.303723)
Other time (%) = 32.8603 (4.73256)

Nlocal:    5292.5 ave 5482 max 5122 min
Histogram: 2 0 0 1 0 1 0 0 1 1
Nghost:    7618.17 ave 7786 max 7483 min
Histogram: 1 1 1 0 1 0 0 1 0 1
Neighs:    303243 ave 321361 max 286116 min
Histogram: 2 0 1 0 0 0 1 0 0 2
FullNghs: 606486 ave 644328 max 571327 min
Histogram: 2 0 1 0 0 1 0 0 0 2

Total # of neighbors = 3638916
Ave neighs/atom = 114.593
Ave special neighs/atom = 5.09986
Neighbor list builds = 100
Dangerous builds = 100
velocity all zero linear
WARNING: Use special bonds = 0,1,1 with bond style fene (bond_fene.cpp:189)
Memory usage per processor = 18.891 Mbytes
Step sdpd_kin pTemp 
  235000 1.0280549e+09 1.005405e+09 
  235100 1.0286724e+09 1.0063381e+09 
  235200 1.0222315e+09 1.0001283e+09 
  235300 1.0243225e+09 1.0028018e+09 
  235400 1.0251789e+09 1.0032485e+09 
  235500 1.0262689e+09 1.0042465e+09 
  235600 1.0229378e+09 1.0010736e+09 
  235700 1.024721e+09 1.0029087e+09 
  235800 1.0285322e+09 1.0064105e+09 
  235900 1.0210573e+09 9.9913837e+08 
  236000 1.0218832e+09 1.0001704e+09 
Loop time of 686.418 on 6 procs for 1000 steps with 31755 atoms

Pair  time (%) = 602.248 (87.7378)
Bond  time (%) = 0.760713 (0.110824)
Neigh time (%) = 5.09678 (0.742519)
Comm  time (%) = 43.8645 (6.39035)
Outpt time (%) = 2.11239 (0.307741)
Other time (%) = 32.3354 (4.71075)

Nlocal:    5292.5 ave 5500 max 5057 min
Histogram: 2 0 0 0 0 0 2 1 0 1
Nghost:    7760.67 ave 8019 max 7565 min
Histogram: 2 1 0 0 0 0 1 1 0 1
Neighs:    302847 ave 322162 max 277599 min
Histogram: 2 0 0 0 0 0 0 1 2 1
FullNghs: 605694 ave 644734 max 554567 min
Histogram: 2 0 0 0 0 0 0 1 2 1

Total # of neighbors = 3634164
Ave neighs/atom = 114.444
Ave special neighs/atom = 5.09986
Neighbor list builds = 100
Dangerous builds = 100
velocity all zero linear
WARNING: Use special bonds = 0,1,1 with bond style fene (bond_fene.cpp:189)
Memory usage per processor = 18.891 Mbytes
Step sdpd_kin pTemp 
  236000 1.0218828e+09 1.0001704e+09 
  236100 1.0336403e+09 1.0128821e+09 
  236200 1.0287211e+09 1.0077522e+09 
  236300 1.0200563e+09 9.9896406e+08 
  236400 1.0222239e+09 1.0010215e+09 
  236500 1.0280079e+09 1.0066465e+09 
  236600 1.0163766e+09 9.949262e+08 
  236700 1.031819e+09 1.0104669e+09 
  236800 1.0297245e+09 1.0083843e+09 
  236900 1.0298894e+09  1.00862e+09 
  237000 1.0241001e+09 1.0032143e+09 
Loop time of 683.22 on 6 procs for 1000 steps with 31755 atoms

Pair  time (%) = 601.515 (88.0411)
Bond  time (%) = 0.76565 (0.112065)
Neigh time (%) = 5.10901 (0.747783)
Comm  time (%) = 39.8008 (5.82547)
Outpt time (%) = 2.09798 (0.307072)
Other time (%) = 33.9322 (4.96651)

Nlocal:    5292.5 ave 5425 max 5055 min
Histogram: 1 0 0 0 1 0 0 2 1 1
Nghost:    7848.67 ave 7999 max 7671 min
Histogram: 1 0 1 1 0 0 0 1 1 1
Neighs:    303162 ave 320159 max 276428 min
Histogram: 1 0 0 0 1 0 1 2 0 1
FullNghs: 606324 ave 639321 max 553179 min
Histogram: 1 0 0 0 1 0 1 2 0 1

Total # of neighbors = 3637946
Ave neighs/atom = 114.563
Ave special neighs/atom = 5.09986
Neighbor list builds = 100
Dangerous builds = 100
velocity all zero linear
WARNING: Use special bonds = 0,1,1 with bond style fene (bond_fene.cpp:189)
Memory usage per processor = 18.891 Mbytes
Step sdpd_kin pTemp 
  237000 1.0240995e+09 1.0032143e+09 
  237100 1.0222389e+09 1.0011689e+09 
  237200 1.0238419e+09 1.0025917e+09 
  237300 1.0268261e+09 1.0059656e+09 
  237400 1.0175335e+09 9.9702259e+08 
  237500 1.0246902e+09 1.0039405e+09 
  237600 1.029774e+09 1.0092191e+09 
  237700 1.0235472e+09 1.002629e+09 
  237800 1.017766e+09 9.9684152e+08 
  237900 1.0233745e+09 1.0029146e+09 
  238000 1.0232345e+09 1.0029349e+09 
Loop time of 678.629 on 6 procs for 1000 steps with 31755 atoms

Pair  time (%) = 601.702 (88.6643)
Bond  time (%) = 0.771918 (0.113747)
Neigh time (%) = 5.11794 (0.754159)
Comm  time (%) = 34.8852 (5.14054)
Outpt time (%) = 2.10207 (0.309753)
Other time (%) = 34.0502 (5.0175)

Nlocal:    5292.5 ave 5464 max 5092 min
Histogram: 1 0 1 0 0 1 1 1 0 1
Nghost:    7803.83 ave 7968 max 7681 min
Histogram: 2 1 0 0 0 1 0 0 0 2
Neighs:    302896 ave 315581 max 279350 min
Histogram: 1 0 0 1 0 0 0 1 1 2
FullNghs: 605792 ave 632429 max 555999 min
Histogram: 1 0 0 1 0 0 0 1 1 2

Total # of neighbors = 3634754
Ave neighs/atom = 114.462
Ave special neighs/atom = 5.09986
Neighbor list builds = 100
Dangerous builds = 100
velocity all zero linear
WARNING: Use special bonds = 0,1,1 with bond style fene (bond_fene.cpp:189)
Memory usage per processor = 18.891 Mbytes
Step sdpd_kin pTemp 
  238000 1.023234e+09 1.0029349e+09 
  238100 1.0252457e+09 1.0050654e+09 
  238200 1.0208781e+09 1.0005199e+09 
  238300 1.019037e+09 9.9928696e+08 
  238400 1.0253317e+09 1.0054766e+09 
  238500 1.0226979e+09 1.0024861e+09 
  238600 1.0259455e+09 1.0056713e+09 
  238700 1.0270566e+09 1.0069479e+09 
  238800 1.0270803e+09 1.0068803e+09 
  238900 1.0300883e+09 1.0095987e+09 
  239000 1.0269924e+09 1.005846e+09 
Loop time of 667.667 on 6 procs for 1000 steps with 31755 atoms

Pair  time (%) = 600.176 (89.8915)
Bond  time (%) = 0.776427 (0.11629)
Neigh time (%) = 5.11734 (0.766451)
Comm  time (%) = 26.0431 (3.90061)
Outpt time (%) = 2.09486 (0.313757)
Other time (%) = 33.4596 (5.01143)

Nlocal:    5292.5 ave 5402 max 5067 min
Histogram: 1 0 0 0 0 1 0 1 2 1
Nghost:    7820.83 ave 8007 max 7630 min
Histogram: 1 1 0 0 1 0 1 1 0 1
Neighs:    303182 ave 314734 max 279078 min
Histogram: 1 0 0 0 0 0 1 2 1 1
FullNghs: 606363 ave 628176 max 558126 min
Histogram: 1 0 0 0 0 0 1 1 2 1

Total # of neighbors = 3638180
Ave neighs/atom = 114.57
Ave special neighs/atom = 5.09986
Neighbor list builds = 100
Dangerous builds = 100
velocity all zero linear
WARNING: Use special bonds = 0,1,1 with bond style fene (bond_fene.cpp:189)
Memory usage per processor = 18.891 Mbytes
Step sdpd_kin pTemp 
  239000 1.026992e+09 1.005846e+09 
  239100 1.031716e+09 1.0109412e+09 
  239200 1.0248317e+09 1.0040745e+09 
  239300 1.0192821e+09 9.9824842e+08 
  239400 1.0365714e+09 1.0156978e+09 
  239500 1.0206517e+09 9.9967379e+08 
  239600 1.0234766e+09 1.0020718e+09 
  239700 1.0233361e+09 1.0021232e+09 
  239800 1.0206126e+09 9.9961271e+08 
  239900 1.0232701e+09 1.0021446e+09 
  240000 1.0271704e+09 1.0061323e+09 
Loop time of 670.357 on 6 procs for 1000 steps with 31755 atoms

Pair  time (%) = 602.089 (89.8161)
Bond  time (%) = 0.784597 (0.117042)
Neigh time (%) = 5.13781 (0.766429)
Comm  time (%) = 25.804 (3.84929)
Outpt time (%) = 2.10856 (0.314542)
Other time (%) = 34.4333 (5.13656)

Nlocal:    5292.5 ave 5453 max 5143 min
Histogram: 1 0 1 0 1 1 1 0 0 1
Nghost:    7722 ave 7946 max 7589 min
Histogram: 2 0 1 0 1 1 0 0 0 1
Neighs:    302858 ave 315065 max 293784 min
Histogram: 1 1 0 1 1 0 1 0 0 1
FullNghs: 605716 ave 631899 max 586648 min
Histogram: 1 1 0 1 1 0 1 0 0 1

Total # of neighbors = 3634298
Ave neighs/atom = 114.448
Ave special neighs/atom = 5.09986
Neighbor list builds = 100
Dangerous builds = 99
velocity all zero linear
WARNING: Use special bonds = 0,1,1 with bond style fene (bond_fene.cpp:189)
Memory usage per processor = 18.891 Mbytes
Step sdpd_kin pTemp 
  240000 1.0271703e+09 1.0061323e+09 
  240100 1.0217801e+09 1.0007838e+09 
  240200 1.0213594e+09 1.000491e+09 
  240300 1.0292428e+09 1.0079809e+09 
  240400 1.0204609e+09 9.9905677e+08 
  240500 1.0299741e+09 1.0077909e+09 
  240600 1.0250232e+09 1.0032617e+09 
  240700 1.0252254e+09 1.0035074e+09 
  240800 1.0152258e+09 9.9347885e+08 
  240900 1.0300683e+09 1.0083735e+09 
  241000 1.0232066e+09 1.0011055e+09 
Loop time of 667.183 on 6 procs for 1000 steps with 31755 atoms

Pair  time (%) = 599.741 (89.8915)
Bond  time (%) = 0.778801 (0.11673)
Neigh time (%) = 5.13648 (0.769876)
Comm  time (%) = 25.7138 (3.85409)
Outpt time (%) = 2.08709 (0.312822)
Other time (%) = 33.7257 (5.05494)

Nlocal:    5292.5 ave 5347 max 5144 min
Histogram: 1 0 0 0 0 0 1 0 2 2
Nghost:    7781.83 ave 7960 max 7604 min
Histogram: 1 1 0 1 1 0 0 0 0 2
Neighs:    301825 ave 310713 max 285156 min
Histogram: 1 0 0 0 0 0 2 2 0 1
FullNghs: 603650 ave 621395 max 572047 min
Histogram: 1 0 0 0 0 0 2 2 0 1

Total # of neighbors = 3621898
Ave neighs/atom = 114.058
Ave special neighs/atom = 5.09986
Neighbor list builds = 100
Dangerous builds = 100
velocity all zero linear
WARNING: Use special bonds = 0,1,1 with bond style fene (bond_fene.cpp:189)
Memory usage per processor = 18.891 Mbytes
Step sdpd_kin pTemp 
  241000 1.0232065e+09 1.0011055e+09 
  241100 1.0291199e+09 1.0069878e+09 
  241200 1.028263e+09 1.0059462e+09 
  241300 1.0176145e+09 9.9596087e+08 
  241400 1.0317649e+09 1.0093243e+09 
  241500 1.0339604e+09 1.0117618e+09 
  241600 1.0270554e+09 1.0047702e+09 
  241700 1.0318835e+09 1.0099446e+09 
  241800 1.0324225e+09 1.0106469e+09 
  241900 1.0177252e+09 9.961137e+08 
  242000 1.0218893e+09 1.0005572e+09 
Loop time of 655.001 on 6 procs for 1000 steps with 31755 atoms

Pair  time (%) = 597.713 (91.2538)
Bond  time (%) = 0.788106 (0.120321)
Neigh time (%) = 5.13118 (0.783385)
Comm  time (%) = 15.8572 (2.42094)
Outpt time (%) = 2.09809 (0.320319)
Other time (%) = 33.4134 (5.10127)

Nlocal:    5292.5 ave 5360 max 5161 min
Histogram: 1 0 0 0 0 0 2 0 2 1
Nghost:    7783.33 ave 7947 max 7699 min
Histogram: 1 0 3 1 0 0 0 0 0 1
Neighs:    300482 ave 306299 max 289856 min
Histogram: 1 0 0 0 0 2 0 1 0 2
FullNghs: 600963 ave 612980 max 578857 min
Histogram: 1 0 0 0 0 2 0 1 0 2

Total # of neighbors = 3605780
Ave neighs/atom = 113.55
Ave special neighs/atom = 5.09986
Neighbor list builds = 100
Dangerous builds = 100
velocity all zero linear
WARNING: Use special bonds = 0,1,1 with bond style fene (bond_fene.cpp:189)
Memory usage per processor = 18.891 Mbytes
Step sdpd_kin pTemp 
  242000 1.0218893e+09 1.0005572e+09 
  242100 1.0325455e+09 1.0106412e+09 
  242200 1.0166618e+09 9.9435608e+08 
  242300 1.0177506e+09 9.952303e+08 
  242400  1.02428e+09 1.0021778e+09 
  242500 1.0215595e+09 9.9983881e+08 
  242600 1.0288769e+09 1.0074339e+09 
  242700 1.0243823e+09 1.0029225e+09 
  242800 1.0143849e+09 9.9322619e+08 
  242900 1.0213576e+09 1.0000287e+09 
  243000 1.0245106e+09 1.0030188e+09 
Loop time of 667.748 on 6 procs for 1000 steps with 31755 atoms

Pair  time (%) = 597.132 (89.4247)
Bond  time (%) = 0.777526 (0.11644)
Neigh time (%) = 5.13986 (0.76973)
Comm  time (%) = 28.9339 (4.33306)
Outpt time (%) = 2.10055 (0.314572)
Other time (%) = 33.6643 (5.04147)

Nlocal:    5292.5 ave 5436 max 5110 min
Histogram: 1 0 0 1 0 2 0 0 1 1
Nghost:    7708.67 ave 7947 max 7526 min
Histogram: 1 1 0 1 1 0 0 1 0 1
Neighs:    302176 ave 317759 max 287185 min
Histogram: 1 0 1 1 1 0 0 0 1 1
FullNghs: 604353 ave 636493 max 574580 min
Histogram: 1 0 1 1 1 0 0 0 1 1

Total # of neighbors = 3626118
Ave neighs/atom = 114.19
Ave special neighs/atom = 5.09986
Neighbor list builds = 100
Dangerous builds = 100
velocity all zero linear
WARNING: Use special bonds = 0,1,1 with bond style fene (bond_fene.cpp:189)
Memory usage per processor = 18.891 Mbytes
Step sdpd_kin pTemp 
  243000 1.0245104e+09 1.0030188e+09 
  243100 1.0207747e+09 9.990183e+08 
  243200 1.0254243e+09 1.0036288e+09 
  243300 1.0266997e+09 1.0050303e+09 
  243400 1.0242666e+09 1.0024864e+09 
  243500 1.0222643e+09 1.0005524e+09 
  243600 1.0272716e+09 1.0052464e+09 
  243700 1.0265776e+09 1.0048293e+09 
  243800 1.0298149e+09 1.0082616e+09 
  243900 1.0246619e+09 1.0034801e+09 
  244000 1.0251775e+09 1.0037055e+09 
Loop time of 677.532 on 6 procs for 1000 steps with 31755 atoms

Pair  time (%) = 599.126 (88.4276)
Bond  time (%) = 0.767022 (0.113208)
Neigh time (%) = 5.1212 (0.75586)
Comm  time (%) = 38.4466 (5.6745)
Outpt time (%) = 2.09218 (0.308794)
Other time (%) = 31.9797 (4.72003)

Nlocal:    5292.5 ave 5467 max 5164 min
Histogram: 1 0 2 0 1 1 0 0 0 1
Nghost:    7759.17 ave 7988 max 7589 min
Histogram: 2 0 0 1 1 0 0 1 0 1
Neighs:    302034 ave 319267 max 289209 min
Histogram: 1 0 2 1 0 1 0 0 0 1
FullNghs: 604067 ave 637563 max 578130 min
Histogram: 1 0 1 2 0 0 1 0 0 1

Total # of neighbors = 3624404
Ave neighs/atom = 114.136
Ave special neighs/atom = 5.09986
Neighbor list builds = 100
Dangerous builds = 100
velocity all zero linear
WARNING: Use special bonds = 0,1,1 with bond style fene (bond_fene.cpp:189)
Memory usage per processor = 18.891 Mbytes
Step sdpd_kin pTemp 
  244000 1.0251774e+09 1.0037055e+09 
  244100 1.0262051e+09 1.0045205e+09 
  244200 1.0129509e+09 9.9114834e+08 
  244300 1.0291682e+09 1.0073785e+09 
  244400 1.0247992e+09 1.003166e+09 
  244500 1.0149439e+09 9.9364774e+08 
  244600 1.0214979e+09 1.0000079e+09 
  244700 1.0342347e+09 1.0128347e+09 
  244800 1.0244878e+09 1.0029108e+09 
  244900 1.0281179e+09 1.0068973e+09 
  245000 1.0208486e+09 9.9891774e+08 
Loop time of 670.251 on 6 procs for 1000 steps with 31755 atoms

Pair  time (%) = 598.112 (89.237)
Bond  time (%) = 0.765482 (0.114208)
Neigh time (%) = 5.12234 (0.764242)
Comm  time (%) = 31.2051 (4.65573)
Outpt time (%) = 2.1112 (0.314987)
Other time (%) = 32.935 (4.91383)

Nlocal:    5292.5 ave 5485 max 5208 min
Histogram: 1 3 0 1 0 0 0 0 0 1
Nghost:    7747.33 ave 7886 max 7522 min
Histogram: 1 0 0 0 1 1 0 1 0 2
Neighs:    302132 ave 321399 max 292579 min
Histogram: 1 2 1 0 1 0 0 0 0 1
FullNghs: 604264 ave 643524 max 584190 min
Histogram: 1 1 2 0 1 0 0 0 0 1

Total # of neighbors = 3625584
Ave neighs/atom = 114.174
Ave special neighs/atom = 5.09986
Neighbor list builds = 100
Dangerous builds = 100
velocity all zero linear
WARNING: Use special bonds = 0,1,1 with bond style fene (bond_fene.cpp:189)
Memory usage per processor = 18.891 Mbytes
Step sdpd_kin pTemp 
  245000 1.0208485e+09 9.9891774e+08 
  245100  1.01218e+09 9.8985544e+08 
  245200 1.0151437e+09 9.9324557e+08 
  245300 1.0275536e+09 1.0057229e+09 
  245400 1.0139782e+09 9.921148e+08 
  245500 1.0153534e+09 9.9312751e+08 
  245600 1.0217271e+09 9.9971675e+08 
  245700 1.0195972e+09 9.9814282e+08 
  245800 1.0287538e+09 1.006625e+09 
  245900 1.0265054e+09 1.0043154e+09 
  246000 1.032144e+09 1.0094716e+09 
Loop time of 678.867 on 6 procs for 1000 steps with 31755 atoms

Pair  time (%) = 601.865 (88.6573)
Bond  time (%) = 0.771047 (0.113579)
Neigh time (%) = 5.13615 (0.756577)
Comm  time (%) = 35.47 (5.22488)
Outpt time (%) = 2.1125 (0.31118)
Other time (%) = 33.5125 (4.93653)

Nlocal:    5292.5 ave 5375 max 5178 min
Histogram: 1 1 0 0 0 0 2 0 0 2
Nghost:    7748.83 ave 7896 max 7391 min
Histogram: 1 0 0 0 0 0 0 1 3 1
Neighs:    303433 ave 313897 max 293329 min
Histogram: 1 0 1 0 0 2 1 0 0 1
FullNghs: 606867 ave 628929 max 586169 min
Histogram: 1 0 1 0 1 1 1 0 0 1

Total # of neighbors = 3641200
Ave neighs/atom = 114.665
Ave special neighs/atom = 5.09986
Neighbor list builds = 100
Dangerous builds = 100
velocity all zero linear
WARNING: Use special bonds = 0,1,1 with bond style fene (bond_fene.cpp:189)
Memory usage per processor = 18.891 Mbytes
Step sdpd_kin pTemp 
  246000 1.0321439e+09 1.0094716e+09 
  246100 1.0253706e+09 1.0032453e+09 
  246200 1.022168e+09 9.9965065e+08 
  246300 1.0320483e+09 1.0098857e+09 
  246400 1.0255982e+09 1.0024925e+09 
  246500 1.0269018e+09 1.0042814e+09 
  246600 1.0321839e+09 1.0097904e+09 
  246700 1.0273299e+09 1.0049848e+09 
  246800 1.0334072e+09 1.010488e+09 
  246900 1.0314582e+09 1.0082888e+09 
  247000 1.0230295e+09 9.997937e+08 
Loop time of 670.997 on 6 procs for 1000 steps with 31755 atoms

Pair  time (%) = 600.984 (89.5659)
Bond  time (%) = 0.77626 (0.115688)
Neigh time (%) = 5.13816 (0.76575)
Comm  time (%) = 28.7483 (4.28441)
Outpt time (%) = 2.10471 (0.31367)
Other time (%) = 33.2453 (4.95461)

Nlocal:    5292.5 ave 5389 max 5216 min
Histogram: 2 0 1 1 0 0 0 0 0 2
Nghost:    7783.33 ave 7922 max 7629 min
Histogram: 1 0 0 1 1 1 0 1 0 1
Neighs:    302302 ave 314898 max 295188 min
Histogram: 2 1 1 0 0 0 1 0 0 1
FullNghs: 604604 ave 629634 max 589250 min
Histogram: 1 1 2 0 0 0 1 0 0 1

Total # of neighbors = 3627624
Ave neighs/atom = 114.238
Ave special neighs/atom = 5.09986
Neighbor list builds = 100
Dangerous builds = 100
velocity all zero linear
WARNING: Use special bonds = 0,1,1 with bond style fene (bond_fene.cpp:189)
Memory usage per processor = 18.891 Mbytes
Step sdpd_kin pTemp 
  247000 1.0230293e+09 9.997937e+08 
  247100 1.0272381e+09 1.0044019e+09 
  247200 1.0249509e+09 1.0025872e+09 
  247300 1.019643e+09 9.9739454e+08 
  247400 1.0254261e+09 1.0033967e+09 
  247500 1.0232444e+09 1.0013531e+09 
  247600 1.0238341e+09 1.0018834e+09 
  247700 1.0284029e+09 1.0061008e+09 
  247800 1.0207766e+09 9.9886684e+08 
  247900 1.0293068e+09 1.0069712e+09 
  248000 1.0308992e+09 1.0086584e+09 
Loop time of 678.355 on 6 procs for 1000 steps with 31755 atoms

Pair  time (%) = 599.869 (88.4301)
Bond  time (%) = 0.77558 (0.114333)
Neigh time (%) = 5.11832 (0.75452)
Comm  time (%) = 38.3102 (5.64751)
Outpt time (%) = 2.10112 (0.309738)
Other time (%) = 32.1799 (4.74381)

Nlocal:    5292.5 ave 5419 max 5168 min
Histogram: 1 1 0 1 0 0 1 1 0 1
Nghost:    7786.33 ave 8017 max 7556 min
Histogram: 1 0 1 0 1 1 0 1 0 1
Neighs:    301639 ave 318935 max 290667 min
Histogram: 1 0 2 0 2 0 0 0 0 1
FullNghs: 603278 ave 637480 max 579413 min
Histogram: 1 1 0 1 2 0 0 0 0 1

Total # of neighbors = 3619668
Ave neighs/atom = 113.987
Ave special neighs/atom = 5.09986
Neighbor list builds = 100
Dangerous builds = 100
velocity all zero linear
WARNING: Use special bonds = 0,1,1 with bond style fene (bond_fene.cpp:189)
Memory usage per processor = 18.891 Mbytes
Step sdpd_kin pTemp 
  248000 1.0308988e+09 1.0086584e+09 
  248100 1.0240513e+09 1.0021868e+09 
  248200 1.0304345e+09 1.0087967e+09 
  248300  1.02412e+09 1.0026852e+09 
  248400 1.0185439e+09 9.9671692e+08 
  248500 1.0233553e+09 1.0012441e+09 
  248600 1.0253461e+09 1.0036527e+09 
  248700 1.0291584e+09 1.007339e+09 
  248800 1.0214044e+09 9.9947911e+08 
  248900 1.0226187e+09 1.0004158e+09 
  249000 1.0282894e+09 1.0061819e+09 
Loop time of 673.685 on 6 procs for 1000 steps with 31755 atoms

Pair  time (%) = 599.919 (89.0504)
Bond  time (%) = 0.769256 (0.114186)
Neigh time (%) = 5.14121 (0.763147)
Comm  time (%) = 32.3755 (4.80573)
Outpt time (%) = 2.10668 (0.31271)
Other time (%) = 33.3734 (4.95385)

Nlocal:    5292.5 ave 5397 max 5167 min
Histogram: 1 0 0 2 0 0 1 0 0 2
Nghost:    7862.67 ave 8110 max 7577 min
Histogram: 1 0 0 1 0 1 2 0 0 1
Neighs:    301752 ave 310545 max 288538 min
Histogram: 1 0 0 1 0 0 1 1 0 2
FullNghs: 603505 ave 620510 max 577813 min
Histogram: 1 0 0 1 0 0 1 1 0 2

Total # of neighbors = 3621030
Ave neighs/atom = 114.03
Ave special neighs/atom = 5.09986
Neighbor list builds = 100
Dangerous builds = 100
velocity all zero linear
WARNING: Use special bonds = 0,1,1 with bond style fene (bond_fene.cpp:189)
Memory usage per processor = 18.891 Mbytes
Step sdpd_kin pTemp 
  249000 1.0282894e+09 1.0061819e+09 
  249100 1.0180157e+09 9.9660164e+08 
  249200 1.0229543e+09 1.0014753e+09 
  249300 1.0267947e+09  1.00537e+09 
  249400 1.0233812e+09 1.0021382e+09 
  249500 1.0200845e+09 9.9830525e+08 
  249600 1.0299723e+09 1.0079507e+09 
  249700 1.0213297e+09 9.9967779e+08 
  249800 1.0248555e+09 1.0033042e+09 
  249900   1.0285e+09 1.006904e+09 
  250000 1.0260384e+09 1.0050652e+09 
Loop time of 658.525 on 6 procs for 1000 steps with 31755 atoms

Pair  time (%) = 599.634 (91.0571)
Bond  time (%) = 0.794368 (0.120628)
Neigh time (%) = 5.14944 (0.781966)
Comm  time (%) = 17.465 (2.65213)
Outpt time (%) = 2.10443 (0.319568)
Other time (%) = 33.3779 (5.06858)

Nlocal:    5292.5 ave 5409 max 5191 min
Histogram: 2 0 0 0 1 0 2 0 0 1
Nghost:    7871.33 ave 8069 max 7726 min
Histogram: 1 0 1 1 1 1 0 0 0 1
Neighs:    301511 ave 311694 max 289581 min
Histogram: 1 0 1 0 1 0 1 0 1 1
FullNghs: 603021 ave 623581 max 581696 min
Histogram: 1 1 0 0 1 1 0 0 1 1

Total # of neighbors = 3618128
Ave neighs/atom = 113.939
Ave special neighs/atom = 5.09986
Neighbor list builds = 100
Dangerous builds = 99
velocity all zero linear
WARNING: Use special bonds = 0,1,1 with bond style fene (bond_fene.cpp:189)
Memory usage per processor = 18.891 Mbytes
Step sdpd_kin pTemp 
  250000 1.0260384e+09 1.0050652e+09 
  250100 1.038976e+09 1.0180983e+09 
  250200 1.0272526e+09 1.0069438e+09 
  250300 1.018746e+09 9.9823807e+08 
  250400 1.0240435e+09 1.0035965e+09 
  250500 1.0251753e+09 1.0050695e+09 
  250600 1.0199452e+09 9.9980743e+08 
  250700 1.0150145e+09 9.9478577e+08 
  250800 1.0244538e+09 1.0037288e+09 
  250900 1.0308545e+09 1.0100565e+09 
  251000 1.0212213e+09 1.0004788e+09 
Loop time of 671.907 on 6 procs for 1000 steps with 31755 atoms

Pair  time (%) = 601.98 (89.5929)
Bond  time (%) = 0.780115 (0.116105)
Neigh time (%) = 5.13709 (0.764554)
Comm  time (%) = 27.0403 (4.02441)
Outpt time (%) = 2.08926 (0.310946)
Other time (%) = 34.8796 (5.19113)

Nlocal:    5292.5 ave 5442 max 5063 min
Histogram: 1 0 0 1 0 0 0 2 1 1
Nghost:    7862 ave 8091 max 7592 min
Histogram: 1 0 0 1 1 1 0 0 0 2
Neighs:    302666 ave 315996 max 284073 min
Histogram: 1 0 0 0 1 0 1 2 0 1
FullNghs: 605333 ave 633659 max 565851 min
Histogram: 1 0 0 0 1 0 1 2 0 1

Total # of neighbors = 3631996
Ave neighs/atom = 114.376
Ave special neighs/atom = 5.09986
Neighbor list builds = 100
Dangerous builds = 100
velocity all zero linear
WARNING: Use special bonds = 0,1,1 with bond style fene (bond_fene.cpp:189)
Memory usage per processor = 18.891 Mbytes
Step sdpd_kin pTemp 
  251000 1.0212213e+09 1.0004788e+09 
  251100 1.0238797e+09 1.002863e+09 
  251200 1.0252506e+09 1.0040772e+09 
  251300 1.0222224e+09 1.0014067e+09 
  251400 1.0235509e+09 1.0023707e+09 
  251500 1.024914e+09 1.0038717e+09 
  251600 1.0201987e+09 9.9879534e+08 
  251700 1.0320511e+09 1.0108597e+09 
  251800 1.0306718e+09 1.0094858e+09 
  251900 1.0272137e+09 1.0063473e+09 
  252000 1.0208836e+09 9.9961062e+08 
Loop time of 661.749 on 6 procs for 1000 steps with 31755 atoms

Pair  time (%) = 598.875 (90.4988)
Bond  time (%) = 0.779387 (0.117777)
Neigh time (%) = 5.11659 (0.773192)
Comm  time (%) = 22.0032 (3.325)
Outpt time (%) = 2.07789 (0.314)
Other time (%) = 32.8969 (4.9712)

Nlocal:    5292.5 ave 5366 max 5189 min
Histogram: 1 1 0 0 0 1 0 0 1 2
Nghost:    7747.5 ave 7924 max 7603 min
Histogram: 2 0 1 0 1 0 0 0 0 2
Neighs:    302123 ave 310835 max 289800 min
Histogram: 1 0 1 0 0 0 1 1 1 1
FullNghs: 604246 ave 619790 max 580548 min
Histogram: 1 0 0 1 0 0 1 1 0 2

Total # of neighbors = 3625474
Ave neighs/atom = 114.17
Ave special neighs/atom = 5.09986
Neighbor list builds = 100
Dangerous builds = 100
velocity all zero linear
WARNING: Use special bonds = 0,1,1 with bond style fene (bond_fene.cpp:189)
Memory usage per processor = 18.891 Mbytes
Step sdpd_kin pTemp 
  252000 1.0208836e+09 9.9961062e+08 
  252100 1.024093e+09 1.0030269e+09 
  252200 1.0254695e+09 1.0041684e+09 
  252300 1.0256406e+09 1.0049693e+09 
  252400 1.0305387e+09 1.0094543e+09 
  252500 1.0262776e+09 1.0057569e+09 
  252600 1.0241519e+09 1.0032194e+09 
  252700 1.0230466e+09 1.0017354e+09 
  252800 1.021538e+09 1.0002878e+09 
  252900 1.0302833e+09 1.0089428e+09 
  253000 1.0259548e+09 1.0042526e+09 
Loop time of 666.166 on 6 procs for 1000 steps with 31755 atoms

Pair  time (%) = 599.676 (90.019)
Bond  time (%) = 0.767773 (0.115252)
Neigh time (%) = 5.10711 (0.766643)
Comm  time (%) = 26.1664 (3.92791)
Outpt time (%) = 2.07228 (0.311076)
Other time (%) = 32.3762 (4.86008)

Nlocal:    5292.5 ave 5452 max 5181 min
Histogram: 1 1 2 0 0 0 0 0 0 2
Nghost:    7770.33 ave 7941 max 7534 min
Histogram: 1 0 0 0 1 0 2 1 0 1
Neighs:    301687 ave 315850 max 288996 min
Histogram: 2 0 0 1 1 0 0 0 0 2
FullNghs: 603375 ave 632072 max 576513 min
Histogram: 1 1 0 1 1 0 0 0 0 2

Total # of neighbors = 3620248
Ave neighs/atom = 114.006
Ave special neighs/atom = 5.09986
Neighbor list builds = 100
Dangerous builds = 100
velocity all zero linear
WARNING: Use special bonds = 0,1,1 with bond style fene (bond_fene.cpp:189)
Memory usage per processor = 18.891 Mbytes
Step sdpd_kin pTemp 
  253000 1.0259548e+09 1.0042526e+09 
  253100 1.0228697e+09  1.00043e+09 
  253200 1.0263873e+09 1.0041559e+09 
  253300 1.0295423e+09 1.0074141e+09 
  253400  1.02809e+09 1.0058084e+09 
  253500 1.0245587e+09 1.0022631e+09 
  253600 1.0265937e+09 1.0046821e+09 
  253700 1.0313595e+09 1.0091954e+09 
  253800 1.028965e+09 1.0065283e+09 
  253900 1.0267055e+09 1.0047582e+09 
  254000 1.0143706e+09 9.9273554e+08 
Loop time of 668.703 on 6 procs for 1000 steps with 31755 atoms

Pair  time (%) = 599.163 (89.6007)
Bond  time (%) = 0.76666 (0.114649)
Neigh time (%) = 5.10964 (0.764112)
Comm  time (%) = 28.7923 (4.3057)
Outpt time (%) = 2.09034 (0.312596)
Other time (%) = 32.7815 (4.90225)

Nlocal:    5292.5 ave 5385 max 5214 min
Histogram: 1 1 1 0 1 0 0 0 1 1
Nghost:    7859.33 ave 7999 max 7697 min
Histogram: 1 0 0 0 2 1 0 1 0 1
Neighs:    301097 ave 310586 max 294329 min
Histogram: 1 1 1 1 0 0 1 0 0 1
FullNghs: 602194 ave 621188 max 589235 min
Histogram: 1 1 1 1 0 0 0 1 0 1

Total # of neighbors = 3613164
Ave neighs/atom = 113.783
Ave special neighs/atom = 5.09986
Neighbor list builds = 100
Dangerous builds = 100
velocity all zero linear
WARNING: Use special bonds = 0,1,1 with bond style fene (bond_fene.cpp:189)
Memory usage per processor = 18.891 Mbytes
Step sdpd_kin pTemp 
  254000 1.0143706e+09 9.9273554e+08 
  254100 1.0222761e+09 1.000788e+09 
  254200 1.0222059e+09 1.0004745e+09 
  254300 1.0285781e+09 1.0067151e+09 
  254400 1.0258286e+09 1.0041966e+09 
  254500 1.0291451e+09 1.0072059e+09 
  254600 1.0211335e+09 9.9968774e+08 
  254700 1.0259762e+09 1.0041609e+09 
  254800 1.0232432e+09 1.0015128e+09 
  254900 1.022194e+09 1.000332e+09 
  255000 1.0146402e+09 9.9342694e+08 
Loop time of 661.708 on 6 procs for 1000 steps with 31755 atoms

Pair  time (%) = 598.667 (90.473)
Bond  time (%) = 0.78343 (0.118395)
Neigh time (%) = 5.13899 (0.776625)
Comm  time (%) = 22.1932 (3.35392)
Outpt time (%) = 2.09963 (0.317305)
Other time (%) = 32.8257 (4.96075)

Nlocal:    5292.5 ave 5364 max 5224 min
Histogram: 2 0 0 0 0 1 1 1 0 1
Nghost:    7849.83 ave 7974 max 7638 min
Histogram: 1 0 0 0 0 0 2 2 0 1
Neighs:    302218 ave 312682 max 294693 min
Histogram: 1 1 1 0 0 1 1 0 0 1
FullNghs: 604436 ave 623199 max 588780 min
Histogram: 1 1 1 0 0 1 1 0 0 1

Total # of neighbors = 3626614
Ave neighs/atom = 114.206
Ave special neighs/atom = 5.09986
Neighbor list builds = 100
Dangerous builds = 100
velocity all zero linear
WARNING: Use special bonds = 0,1,1 with bond style fene (bond_fene.cpp:189)
Memory usage per processor = 18.891 Mbytes
Step sdpd_kin pTemp 
  255000 1.0146401e+09 9.9342694e+08 
  255100 1.0211983e+09 1.0002808e+09 
  255200 1.0258226e+09 1.0049927e+09 
  255300 1.0150448e+09 9.9399794e+08 
  255400 1.0232633e+09 1.0025902e+09 
  255500 1.0227884e+09 1.0017865e+09 
  255600 1.0161818e+09 9.9532796e+08 
  255700 1.0288367e+09 1.0081312e+09 
  255800 1.025199e+09 1.0036706e+09 
  255900 1.0253087e+09 1.0036185e+09 
  256000 1.0182058e+09 9.9678263e+08 
Loop time of 668.416 on 6 procs for 1000 steps with 31755 atoms

Pair  time (%) = 600.281 (89.8065)
Bond  time (%) = 0.775316 (0.115993)
Neigh time (%) = 5.12418 (0.766615)
Comm  time (%) = 26.353 (3.9426)
Outpt time (%) = 2.0887 (0.312485)
Other time (%) = 33.7941 (5.05585)

Nlocal:    5292.5 ave 5461 max 5156 min
Histogram: 1 0 0 2 1 1 0 0 0 1
Nghost:    7872.83 ave 8107 max 7699 min
Histogram: 1 0 1 1 2 0 0 0 0 1
Neighs:    302651 ave 317796 max 289621 min
Histogram: 1 0 0 2 1 0 1 0 0 1
FullNghs: 605302 ave 637360 max 575748 min
Histogram: 1 0 0 1 1 2 0 0 0 1

Total # of neighbors = 3631814
Ave neighs/atom = 114.37
Ave special neighs/atom = 5.09986
Neighbor list builds = 100
Dangerous builds = 100
velocity all zero linear
WARNING: Use special bonds = 0,1,1 with bond style fene (bond_fene.cpp:189)
Memory usage per processor = 18.891 Mbytes
Step sdpd_kin pTemp 
  256000 1.0182056e+09 9.9678263e+08 
  256100 1.0254324e+09 1.0035714e+09 
  256200 1.0274477e+09 1.0060237e+09 
  256300 1.0319906e+09 1.0104252e+09 
  256400 1.0303307e+09 1.0088142e+09 
  256500 1.0261045e+09 1.0043365e+09 
  256600 1.0230592e+09 1.0015029e+09 
  256700 1.0296754e+09 1.0079425e+09 
  256800 1.0193401e+09 9.9709807e+08 
  256900 1.0262212e+09   1.0039e+09 
  257000 1.024176e+09 1.0021334e+09 
Loop time of 664.129 on 6 procs for 1000 steps with 31755 atoms

Pair  time (%) = 599.472 (90.2644)
Bond  time (%) = 0.780477 (0.117519)
Neigh time (%) = 5.13609 (0.773357)
Comm  time (%) = 23.8699 (3.59417)
Outpt time (%) = 2.09563 (0.315546)
Other time (%) = 32.7745 (4.93497)

Nlocal:    5292.5 ave 5427 max 5174 min
Histogram: 2 0 0 0 1 1 0 1 0 1
Nghost:    7822.67 ave 7990 max 7603 min
Histogram: 1 0 0 1 0 2 0 0 0 2
Neighs:    302045 ave 315362 max 289910 min
Histogram: 2 0 0 0 0 1 2 0 0 1
FullNghs: 604091 ave 629807 max 579757 min
Histogram: 2 0 0 0 0 1 2 0 0 1

Total # of neighbors = 3624544
Ave neighs/atom = 114.141
Ave special neighs/atom = 5.09986
Neighbor list builds = 100
Dangerous builds = 100
velocity all zero linear
WARNING: Use special bonds = 0,1,1 with bond style fene (bond_fene.cpp:189)
Memory usage per processor = 18.891 Mbytes
Step sdpd_kin pTemp 
  257000 1.0241759e+09 1.0021334e+09 
  257100 1.0176077e+09 9.955403e+08 
  257200 1.0320935e+09 1.0092729e+09 
  257300 1.0211837e+09 9.9861145e+08 
  257400 1.0296149e+09 1.0070595e+09 
  257500 1.0212152e+09 9.9880488e+08 
  257600 1.0265734e+09 1.004009e+09 
  257700 1.0233643e+09 1.0005074e+09 
  257800 1.0240238e+09 1.0009436e+09 
  257900 1.0319859e+09 1.0092302e+09 
  258000 1.0200591e+09 9.9721278e+08 
Loop time of 671.57 on 6 procs for 1000 steps with 31755 atoms

Pair  time (%) = 599.815 (89.3153)
Bond  time (%) = 0.778839 (0.115973)
Neigh time (%) = 5.1233 (0.762883)
Comm  time (%) = 29.4497 (4.3852)
Outpt time (%) = 2.07518 (0.309004)
Other time (%) = 34.328 (5.1116)

Nlocal:    5292.5 ave 5386 max 5210 min
Histogram: 2 1 0 0 0 0 1 0 0 2
Nghost:    7696.33 ave 7917 max 7460 min
Histogram: 1 1 0 0 1 1 0 0 0 2
Neighs:    303077 ave 316203 max 289609 min
Histogram: 1 1 0 1 0 0 1 0 1 1
FullNghs: 606154 ave 631632 max 579468 min
Histogram: 1 1 0 0 1 0 1 0 1 1

Total # of neighbors = 3636924
Ave neighs/atom = 114.531
Ave special neighs/atom = 5.09986
Neighbor list builds = 100
Dangerous builds = 100
velocity all zero linear
WARNING: Use special bonds = 0,1,1 with bond style fene (bond_fene.cpp:189)
Memory usage per processor = 18.891 Mbytes
Step sdpd_kin pTemp 
  258000 1.0200591e+09 9.9721278e+08 
  258100 1.0271393e+09 1.0040473e+09 
  258200 1.0290759e+09 1.0057494e+09 
  258300 1.0275444e+09 1.0038594e+09 
  258400  1.02812e+09 1.0045751e+09 
  258500    1.029e+09 1.0052283e+09 
  258600 1.0257239e+09 1.0014231e+09 
  258700 1.025766e+09 1.0013291e+09 
  258800 1.0275838e+09 1.0033905e+09 
  258900 1.0262391e+09 1.0018633e+09 
  259000 1.0282409e+09 1.0038038e+09 
Loop time of 666.118 on 6 procs for 1000 steps with 31755 atoms

Pair  time (%) = 600.508 (90.1504)
Bond  time (%) = 0.771597 (0.115835)
Neigh time (%) = 5.14891 (0.772973)
Comm  time (%) = 23.796 (3.57234)
Outpt time (%) = 2.0922 (0.314088)
Other time (%) = 33.8014 (5.07439)

Nlocal:    5292.5 ave 5431 max 5155 min
Histogram: 2 0 0 0 0 1 1 0 1 1
Nghost:    7731 ave 7830 max 7650 min
Histogram: 1 1 0 1 0 1 0 1 0 1
Neighs:    302891 ave 317205 max 287652 min
Histogram: 2 0 0 0 0 0 2 1 0 1
FullNghs: 605782 ave 634996 max 576041 min
Histogram: 2 0 0 0 0 0 3 0 0 1

Total # of neighbors = 3634690
Ave neighs/atom = 114.46
Ave special neighs/atom = 5.09986
Neighbor list builds = 100
Dangerous builds = 100
velocity all zero linear
WARNING: Use special bonds = 0,1,1 with bond style fene (bond_fene.cpp:189)
Memory usage per processor = 18.891 Mbytes
Step sdpd_kin pTemp 
  259000 1.0282409e+09 1.0038038e+09 
  259100 1.0244273e+09 9.997508e+08 
  259200 1.0240935e+09 9.9980908e+08 
  259300 1.0297198e+09 1.0052426e+09 
  259400 1.0313764e+09 1.0066463e+09 
  259500 1.0213026e+09 9.9694067e+08 
  259600 1.019927e+09 9.9555687e+08 
  259700 1.0176502e+09 9.9293365e+08 
  259800 1.0227603e+09 9.9807428e+08 
  259900 1.0175482e+09 9.9270801e+08 
  260000 1.0273274e+09 1.002599e+09 
Loop time of 684.908 on 6 procs for 1000 steps with 31755 atoms

Pair  time (%) = 600.653 (87.6983)
Bond  time (%) = 0.778877 (0.11372)
Neigh time (%) = 5.12834 (0.748763)
Comm  time (%) = 42.3487 (6.18313)
Outpt time (%) = 2.08118 (0.303862)
Other time (%) = 33.9185 (4.95227)

Nlocal:    5292.5 ave 5445 max 5173 min
Histogram: 1 1 0 0 1 2 0 0 0 1
Nghost:    7759.67 ave 7888 max 7577 min
Histogram: 1 0 0 0 2 0 0 1 0 2
Neighs:    302498 ave 322377 max 291104 min
Histogram: 2 0 1 1 0 1 0 0 0 1
FullNghs: 604996 ave 644695 max 581178 min
Histogram: 2 0 1 1 0 1 0 0 0 1

Total # of neighbors = 3629978
Ave neighs/atom = 114.312
Ave special neighs/atom = 5.09986
Neighbor list builds = 100
Dangerous builds = 99
velocity all zero linear
WARNING: Use special bonds = 0,1,1 with bond style fene (bond_fene.cpp:189)
Memory usage per processor = 18.891 Mbytes
Step sdpd_kin pTemp 
  260000 1.0273274e+09 1.002599e+09 
  260100 1.0283009e+09 1.0037983e+09 
  260200 1.0245887e+09 9.9964513e+08 
  260300 1.032873e+09 1.0080698e+09 
  260400 1.0298883e+09 1.0044835e+09 
  260500 1.0259716e+09 1.0014016e+09 
  260600 1.0294599e+09 1.0046544e+09 
  260700 1.0304142e+09 1.0048538e+09 
  260800 1.0332503e+09 1.008122e+09 
  260900 1.0345142e+09 1.0088521e+09 
  261000 1.0374582e+09 1.011761e+09 
Loop time of 670.493 on 6 procs for 1000 steps with 31755 atoms

Pair  time (%) = 598.778 (89.3042)
Bond  time (%) = 0.77387 (0.115418)
Neigh time (%) = 5.1245 (0.764289)
Comm  time (%) = 31.1093 (4.63977)
Outpt time (%) = 2.06887 (0.308559)
Other time (%) = 32.6378 (4.86773)

Nlocal:    5292.5 ave 5385 max 5145 min
Histogram: 1 0 1 0 0 0 1 0 1 2
Nghost:    7582 ave 7745 max 7435 min
Histogram: 1 0 0 2 0 2 0 0 0 1
Neighs:    302606 ave 310908 max 288081 min
Histogram: 1 0 1 0 0 0 1 0 0 3
FullNghs: 605211 ave 621795 max 575910 min
Histogram: 1 0 0 1 0 0 1 0 0 3

Total # of neighbors = 3631268
Ave neighs/atom = 114.353
Ave special neighs/atom = 5.09986
Neighbor list builds = 100
Dangerous builds = 100
velocity all zero linear
WARNING: Use special bonds = 0,1,1 with bond style fene (bond_fene.cpp:189)
Memory usage per processor = 18.891 Mbytes
Step sdpd_kin pTemp 
  261000 1.0374582e+09 1.011761e+09 
  261100 1.0280915e+09 1.0020749e+09 
  261200 1.0346942e+09 1.0087082e+09 
  261300 1.0307275e+09 1.0046221e+09 
  261400 1.0366462e+09 1.0109875e+09 
  261500 1.0273427e+09 1.0017068e+09 
  261600 1.0228745e+09 9.9791993e+08 
  261700 1.0255009e+09 1.0002545e+09 
  261800 1.0344189e+09 1.0088095e+09 
  261900 1.0241583e+09 9.987125e+08 
  262000 1.0336904e+09 1.0090429e+09 
Loop time of 674.399 on 6 procs for 1000 steps with 31755 atoms

Pair  time (%) = 601.791 (89.2336)
Bond  time (%) = 0.764535 (0.113365)
Neigh time (%) = 5.12356 (0.759722)
Comm  time (%) = 32.2961 (4.78887)
Outpt time (%) = 2.08286 (0.308847)
Other time (%) = 32.3413 (4.79557)

Nlocal:    5292.5 ave 5415 max 5149 min
Histogram: 1 0 0 1 2 0 0 0 0 2
Nghost:    7606.5 ave 7708 max 7468 min
Histogram: 2 0 0 0 0 1 0 0 1 2
Neighs:    303412 ave 314225 max 290800 min
Histogram: 1 0 0 1 1 1 0 0 0 2
FullNghs: 606825 ave 628855 max 580067 min
Histogram: 1 0 0 1 1 1 0 0 0 2

Total # of neighbors = 3640950
Ave neighs/atom = 114.658
Ave special neighs/atom = 5.09986
Neighbor list builds = 100
Dangerous builds = 100
velocity all zero linear
WARNING: Use special bonds = 0,1,1 with bond style fene (bond_fene.cpp:189)
Memory usage per processor = 18.891 Mbytes
Step sdpd_kin pTemp 
  262000 1.0336904e+09 1.0090429e+09 
  262100 1.0220831e+09 9.9745529e+08 
  262200 1.0310969e+09 1.006234e+09 
  262300 1.0246863e+09 9.9980775e+08 
  262400 1.0229549e+09  9.98305e+08 
  262500 1.0301552e+09 1.0061133e+09 
  262600 1.0330117e+09 1.009274e+09 
  262700 1.0240517e+09 1.0000979e+09 
  262800 1.0280617e+09 1.0042581e+09 
  262900 1.0248665e+09 1.0016512e+09 
  263000 1.026863e+09 1.0035642e+09 
Loop time of 668.339 on 6 procs for 1000 steps with 31755 atoms

Pair  time (%) = 599.777 (89.7414)
Bond  time (%) = 0.765497 (0.114537)
Neigh time (%) = 5.10852 (0.76436)
Comm  time (%) = 26.9268 (4.02891)
Outpt time (%) = 2.06261 (0.308617)
Other time (%) = 33.6991 (5.04221)

Nlocal:    5292.5 ave 5422 max 5179 min
Histogram: 2 1 0 0 0 0 1 0 0 2
Nghost:    7724 ave 7828 max 7590 min
Histogram: 1 1 0 0 0 1 1 0 0 2
Neighs:    301325 ave 314811 max 287326 min
Histogram: 1 1 0 0 1 0 1 0 1 1
FullNghs: 602650 ave 629451 max 574551 min
Histogram: 1 1 0 0 1 0 1 0 1 1

Total # of neighbors = 3615900
Ave neighs/atom = 113.869
Ave special neighs/atom = 5.09986
Neighbor list builds = 100
Dangerous builds = 100
velocity all zero linear
WARNING: Use special bonds = 0,1,1 with bond style fene (bond_fene.cpp:189)
Memory usage per processor = 18.891 Mbytes
Step sdpd_kin pTemp 
  263000 1.0268628e+09 1.0035642e+09 
  263100 1.0338951e+09 1.0110755e+09 
  263200 1.0244614e+09 1.0021937e+09 
  263300 1.0210208e+09 9.9768189e+08 
  263400 1.0285092e+09 1.0058853e+09 
  263500 1.0293391e+09 1.0065396e+09 
  263600 1.0190882e+09 9.9664228e+08 
  263700 1.0237433e+09 1.0008614e+09 
  263800 1.0258334e+09 1.0025456e+09 
  263900 1.0267113e+09 1.0036298e+09 
  264000 1.0250571e+09 1.0028983e+09 
Loop time of 675.504 on 6 procs for 1000 steps with 31755 atoms

Pair  time (%) = 597.036 (88.3838)
Bond  time (%) = 0.770082 (0.114001)
Neigh time (%) = 5.09394 (0.754095)
Comm  time (%) = 38.0254 (5.62919)
Outpt time (%) = 2.07249 (0.306807)
Other time (%) = 32.5061 (4.81212)

Nlocal:    5292.5 ave 5546 max 5116 min
Histogram: 1 0 0 3 1 0 0 0 0 1
Nghost:    7781 ave 7990 max 7602 min
Histogram: 1 1 1 0 0 0 1 1 0 1
Neighs:    300370 ave 325063 max 279728 min
Histogram: 1 0 0 1 2 1 0 0 0 1
FullNghs: 600740 ave 650771 max 558298 min
Histogram: 1 0 0 1 2 1 0 0 0 1

Total # of neighbors = 3604438
Ave neighs/atom = 113.508
Ave special neighs/atom = 5.09986
Neighbor list builds = 100
Dangerous builds = 100
velocity all zero linear
WARNING: Use special bonds = 0,1,1 with bond style fene (bond_fene.cpp:189)
Memory usage per processor = 18.891 Mbytes
Step sdpd_kin pTemp 
  264000 1.0250566e+09 1.0028983e+09 
  264100 1.0249318e+09 1.0026326e+09 
  264200 1.0267233e+09 1.0043427e+09 
  264300 1.0313009e+09 1.0092694e+09 
  264400 1.0256115e+09 1.0032697e+09 
  264500 1.019495e+09 9.9738921e+08 
  264600 1.0309704e+09 1.0087895e+09 
  264700 1.0212896e+09 9.9881889e+08 
  264800 1.0173044e+09 9.946402e+08 
  264900 1.0282617e+09 1.0059013e+09 
  265000 1.0295132e+09 1.0074829e+09 
Loop time of 694.284 on 6 procs for 1000 steps with 31755 atoms

Pair  time (%) = 598.732 (86.2374)
Bond  time (%) = 0.763607 (0.109985)
Neigh time (%) = 5.10239 (0.734914)
Comm  time (%) = 52.7138 (7.59254)
Outpt time (%) = 2.07644 (0.299077)
Other time (%) = 34.8955 (5.02612)

Nlocal:    5292.5 ave 5476 max 5151 min
Histogram: 1 1 0 1 0 2 0 0 0 1
Nghost:    7725.5 ave 7890 max 7480 min
Histogram: 1 0 0 0 0 1 2 1 0 1
Neighs:    302168 ave 325145 max 285699 min
Histogram: 1 0 1 2 0 1 0 0 0 1
FullNghs: 604337 ave 650503 max 573335 min
Histogram: 1 0 1 2 1 0 0 0 0 1

Total # of neighbors = 3626020
Ave neighs/atom = 114.187
Ave special neighs/atom = 5.09986
Neighbor list builds = 100
Dangerous builds = 100
velocity all zero linear
WARNING: Use special bonds = 0,1,1 with bond style fene (bond_fene.cpp:189)
Memory usage per processor = 18.891 Mbytes
Step sdpd_kin pTemp 
  265000 1.0295127e+09 1.0074829e+09 
  265100 1.0342163e+09 1.0114147e+09 
  265200 1.0268462e+09 1.0041595e+09 
  265300 1.0239524e+09 1.0011832e+09 
  265400 1.0259257e+09 1.0037087e+09 
  265500 1.0253774e+09 1.0028081e+09 
  265600 1.028968e+09 1.0068514e+09 
  265700 1.0298626e+09 1.0079473e+09 
  265800 1.0197495e+09 9.9802891e+08 
  265900 1.0168664e+09 9.9521446e+08 
  266000 1.026824e+09 1.0054769e+09 
Loop time of 680.382 on 6 procs for 1000 steps with 31755 atoms

Pair  time (%) = 601.867 (88.4603)
Bond  time (%) = 0.771177 (0.113345)
Neigh time (%) = 5.12233 (0.752862)
Comm  time (%) = 38.3207 (5.63224)
Outpt time (%) = 2.07724 (0.305305)
Other time (%) = 32.2228 (4.73599)

Nlocal:    5292.5 ave 5410 max 5196 min
Histogram: 1 0 1 1 0 2 0 0 0 1
Nghost:    7878 ave 8095 max 7608 min
Histogram: 1 0 0 0 1 1 1 1 0 1
Neighs:    301776 ave 316514 max 293386 min
Histogram: 2 0 1 1 1 0 0 0 0 1
FullNghs: 603552 ave 632755 max 585690 min
Histogram: 1 1 1 1 0 1 0 0 0 1

Total # of neighbors = 3621314
Ave neighs/atom = 114.039
Ave special neighs/atom = 5.09986
Neighbor list builds = 100
Dangerous builds = 100
velocity all zero linear
WARNING: Use special bonds = 0,1,1 with bond style fene (bond_fene.cpp:189)
Memory usage per processor = 18.891 Mbytes
Step sdpd_kin pTemp 
  266000 1.0268235e+09 1.0054769e+09 
  266100 1.0266244e+09 1.0048939e+09 
  266200 1.0305946e+09 1.0083642e+09 
  266300 1.0260708e+09 1.0045862e+09 
  266400 1.024382e+09 1.0025895e+09 
  266500 1.0215994e+09 9.9980203e+08 
  266600 1.0291661e+09 1.0071782e+09 
  266700 1.025309e+09 1.003203e+09 
  266800 1.0289538e+09 1.0068651e+09 
  266900 1.0284424e+09 1.0056206e+09 
  267000 1.0265199e+09 1.0037757e+09 
Loop time of 675.222 on 6 procs for 1000 steps with 31755 atoms

Pair  time (%) = 598.683 (88.6647)
Bond  time (%) = 0.775837 (0.114901)
Neigh time (%) = 5.1491 (0.76258)
Comm  time (%) = 34.3718 (5.09044)
Outpt time (%) = 2.07177 (0.306828)
Other time (%) = 34.1702 (5.06059)

Nlocal:    5292.5 ave 5400 max 5184 min
Histogram: 1 1 0 1 0 0 1 0 1 1
Nghost:    7876 ave 8090 max 7720 min
Histogram: 2 0 0 1 1 0 1 0 0 1
Neighs:    302621 ave 309572 max 292400 min
Histogram: 2 0 0 0 0 1 0 0 0 3
FullNghs: 605242 ave 619309 max 583721 min
Histogram: 1 1 0 0 0 1 0 0 0 3

Total # of neighbors = 3631454
Ave neighs/atom = 114.358
Ave special neighs/atom = 5.09986
Neighbor list builds = 100
Dangerous builds = 100
velocity all zero linear
WARNING: Use special bonds = 0,1,1 with bond style fene (bond_fene.cpp:189)
Memory usage per processor = 18.891 Mbytes
Step sdpd_kin pTemp 
  267000 1.0265195e+09 1.0037757e+09 
  267100 1.0245343e+09 1.0020193e+09 
  267200 1.0291793e+09 1.0061638e+09 
  267300 1.0313315e+09 1.008284e+09 
  267400 1.0184041e+09 9.950458e+08 
  267500 1.0245123e+09 1.0004226e+09 
  267600 1.0315216e+09 1.0078739e+09 
  267700 1.0279977e+09 1.0043445e+09 
  267800 1.0228355e+09 9.9947756e+08 
  267900 1.0190298e+09 9.9558885e+08 
  268000 1.024522e+09 1.0013173e+09 
Loop time of 664.316 on 6 procs for 1000 steps with 31755 atoms

Pair  time (%) = 602.613 (90.7118)
Bond  time (%) = 0.788715 (0.118726)
Neigh time (%) = 5.13167 (0.772475)
Comm  time (%) = 20.8363 (3.13651)
Outpt time (%) = 2.07827 (0.312844)
Other time (%) = 32.868 (4.94764)

Nlocal:    5292.5 ave 5408 max 5148 min
Histogram: 1 1 0 0 0 0 1 2 0 1
Nghost:    7793.5 ave 8019 max 7648 min
Histogram: 1 1 0 1 2 0 0 0 0 1
Neighs:    302464 ave 312484 max 287870 min
Histogram: 1 1 0 0 0 0 1 1 0 2
FullNghs: 604928 ave 626029 max 576619 min
Histogram: 1 1 0 0 0 0 2 0 0 2

Total # of neighbors = 3629566
Ave neighs/atom = 114.299
Ave special neighs/atom = 5.09986
Neighbor list builds = 100
Dangerous builds = 100
velocity all zero linear
WARNING: Use special bonds = 0,1,1 with bond style fene (bond_fene.cpp:189)
Memory usage per processor = 18.891 Mbytes
Step sdpd_kin pTemp 
  268000 1.0245218e+09 1.0013173e+09 
  268100 1.0316072e+09 1.0080424e+09 
  268200 1.0301605e+09 1.0066787e+09 
  268300 1.0214843e+09 9.9779844e+08 
  268400 1.0312489e+09 1.0079504e+09 
  268500 1.0300858e+09 1.0059008e+09 
  268600 1.0312615e+09 1.0075221e+09 
  268700 1.0340937e+09 1.0100792e+09 
  268800 1.0207644e+09 9.9687159e+08 
  268900 1.0241089e+09 1.000742e+09 
  269000 1.0301758e+09 1.0067331e+09 
Loop time of 665.241 on 6 procs for 1000 steps with 31755 atoms

Pair  time (%) = 600.517 (90.2705)
Bond  time (%) = 0.782049 (0.117559)
Neigh time (%) = 5.15447 (0.774827)
Comm  time (%) = 23.0833 (3.46991)
Outpt time (%) = 2.08051 (0.312744)
Other time (%) = 33.6242 (5.05443)

Nlocal:    5292.5 ave 5387 max 5203 min
Histogram: 1 0 1 1 0 0 1 1 0 1
Nghost:    7677.5 ave 7916 max 7456 min
Histogram: 1 0 1 1 1 0 0 0 1 1
Neighs:    302257 ave 310837 max 294616 min
Histogram: 1 0 1 1 0 1 0 1 0 1
FullNghs: 604513 ave 622145 max 589289 min
Histogram: 1 0 1 1 1 0 0 1 0 1

Total # of neighbors = 3627080
Ave neighs/atom = 114.221
Ave special neighs/atom = 5.09986
Neighbor list builds = 100
Dangerous builds = 100
velocity all zero linear
WARNING: Use special bonds = 0,1,1 with bond style fene (bond_fene.cpp:189)
Memory usage per processor = 18.891 Mbytes
Step sdpd_kin pTemp 
  269000 1.0301757e+09 1.0067331e+09 
  269100 1.0349385e+09 1.0123795e+09 
  269200 1.0293919e+09 1.0071958e+09 
  269300 1.0200476e+09 9.9776268e+08 
  269400 1.0073465e+09 9.8505368e+08 
  269500 1.0294926e+09 1.0073022e+09 
  269600 1.0243617e+09 1.0022541e+09 
  269700 1.0320772e+09 1.0101583e+09 
  269800 1.0318034e+09 1.010042e+09 
  269900 1.0262617e+09 1.0045281e+09 
  270000 1.0275783e+09 1.0056796e+09 
Loop time of 667.618 on 6 procs for 1000 steps with 31755 atoms

Pair  time (%) = 600.399 (89.9315)
Bond  time (%) = 0.779625 (0.116777)
Neigh time (%) = 5.14406 (0.770509)
Comm  time (%) = 26.1668 (3.91943)
Outpt time (%) = 2.08671 (0.31256)
Other time (%) = 33.042 (4.94924)

Nlocal:    5292.5 ave 5446 max 5179 min
Histogram: 2 0 0 0 2 0 1 0 0 1
Nghost:    7771.83 ave 8026 max 7438 min
Histogram: 1 1 0 0 0 1 0 0 1 2
Neighs:    302501 ave 319031 max 286247 min
Histogram: 1 0 0 2 1 0 0 1 0 1
FullNghs: 605003 ave 638153 max 573285 min
Histogram: 1 0 0 2 1 0 0 1 0 1

Total # of neighbors = 3630016
Ave neighs/atom = 114.313
Ave special neighs/atom = 5.09986
Neighbor list builds = 100
Dangerous builds = 99
velocity all zero linear
WARNING: Use special bonds = 0,1,1 with bond style fene (bond_fene.cpp:189)
Memory usage per processor = 18.891 Mbytes
Step sdpd_kin pTemp 
  270000 1.0275783e+09 1.0056796e+09 
  270100 1.0242335e+09 1.0028042e+09 
  270200 1.0349704e+09 1.0132381e+09 
  270300 1.0252464e+09 1.0030723e+09 
  270400 1.0225182e+09 1.0002213e+09 
  270500 1.0200022e+09 9.979219e+08 
  270600 1.0253202e+09 1.0030598e+09 
  270700 1.0131543e+09 9.9098907e+08 
  270800 1.0144703e+09 9.9229251e+08 
  270900 1.0250382e+09  1.00215e+09 
  271000 1.0190819e+09 9.960039e+08 
Loop time of 674.033 on 6 procs for 1000 steps with 31755 atoms

Pair  time (%) = 600.85 (89.1425)
Bond  time (%) = 0.787624 (0.116853)
Neigh time (%) = 5.14931 (0.763955)
Comm  time (%) = 30.3839 (4.50778)
Outpt time (%) = 2.0818 (0.308857)
Other time (%) = 34.7803 (5.16003)

Nlocal:    5292.5 ave 5403 max 5183 min
Histogram: 1 0 0 2 0 1 0 0 1 1
Nghost:    7727.83 ave 8106 max 7558 min
Histogram: 2 1 1 0 1 0 0 0 0 1
Neighs:    302211 ave 311853 max 294009 min
Histogram: 2 0 0 1 0 1 0 0 1 1
FullNghs: 604422 ave 623166 max 587868 min
Histogram: 1 1 1 0 0 1 0 0 1 1

Total # of neighbors = 3626530
Ave neighs/atom = 114.203
Ave special neighs/atom = 5.09986
Neighbor list builds = 100
Dangerous builds = 100
velocity all zero linear
WARNING: Use special bonds = 0,1,1 with bond style fene (bond_fene.cpp:189)
Memory usage per processor = 18.891 Mbytes
Step sdpd_kin pTemp 
  271000 1.0190819e+09 9.960039e+08 
  271100 1.0242505e+09 1.0014885e+09 
  271200 1.0341361e+09 1.011609e+09 
  271300 1.0270755e+09 1.0049868e+09 
  271400 1.0248035e+09 1.002826e+09 
  271500 1.0175973e+09 9.9564188e+08 
  271600 1.0175152e+09 9.9626818e+08 
  271700 1.0295364e+09 1.0082352e+09 
  271800 1.0189583e+09 9.9780434e+08 
  271900 1.0212584e+09 9.9987906e+08 
  272000 1.0292777e+09 1.0077175e+09 
Loop time of 661.404 on 6 procs for 1000 steps with 31755 atoms

Pair  time (%) = 599.951 (90.7087)
Bond  time (%) = 0.789564 (0.119377)
Neigh time (%) = 5.16037 (0.780215)
Comm  time (%) = 19.3812 (2.9303)
Outpt time (%) = 2.08326 (0.314975)
Other time (%) = 34.0388 (5.14644)

Nlocal:    5292.5 ave 5375 max 5196 min
Histogram: 2 0 0 0 0 0 1 2 0 1
Nghost:    7740.33 ave 7883 max 7577 min
Histogram: 2 0 0 0 0 0 1 2 0 1
Neighs:    301636 ave 309420 max 291494 min
Histogram: 1 0 1 0 1 0 0 0 1 2
FullNghs: 603272 ave 617472 max 584846 min
Histogram: 1 1 0 1 0 0 0 0 1 2

Total # of neighbors = 3619630
Ave neighs/atom = 113.986
Ave special neighs/atom = 5.09986
Neighbor list builds = 100
Dangerous builds = 100
velocity all zero linear
WARNING: Use special bonds = 0,1,1 with bond style fene (bond_fene.cpp:189)
Memory usage per processor = 18.891 Mbytes
Step sdpd_kin pTemp 
  272000 1.0292776e+09 1.0077175e+09 
  272100 1.0150994e+09 9.9401641e+08 
  272200 1.022949e+09 1.0012838e+09 
  272300 1.0224142e+09 1.0005886e+09 
  272400 1.0217985e+09 1.0003902e+09 
  272500 1.0234092e+09 1.0018997e+09 
  272600 1.017374e+09 9.9583381e+08 
  272700 1.0188541e+09 9.975877e+08 
  272800 1.0251461e+09 1.0040381e+09 
  272900 1.0225828e+09 1.0014636e+09 
  273000 1.022918e+09 1.0020711e+09 
Loop time of 671.234 on 6 procs for 1000 steps with 31755 atoms

Pair  time (%) = 598.774 (89.205)
Bond  time (%) = 0.779482 (0.116127)
Neigh time (%) = 5.15037 (0.7673)
Comm  time (%) = 31.079 (4.63014)
Outpt time (%) = 2.09367 (0.311914)
Other time (%) = 33.3574 (4.96956)

Nlocal:    5292.5 ave 5428 max 5136 min
Histogram: 2 0 0 0 0 1 0 0 2 1
Nghost:    7795.17 ave 7940 max 7662 min
Histogram: 2 0 0 1 0 0 1 0 0 2
Neighs:    301412 ave 320461 max 285074 min
Histogram: 2 0 0 0 1 1 0 1 0 1
FullNghs: 602825 ave 641017 max 571645 min
Histogram: 2 0 0 1 0 1 0 1 0 1

Total # of neighbors = 3616950
Ave neighs/atom = 113.902
Ave special neighs/atom = 5.09986
Neighbor list builds = 100
Dangerous builds = 100
velocity all zero linear
WARNING: Use special bonds = 0,1,1 with bond style fene (bond_fene.cpp:189)
Memory usage per processor = 18.891 Mbytes
Step sdpd_kin pTemp 
  273000 1.0229178e+09 1.0020711e+09 
  273100 1.0258634e+09 1.0042964e+09 
  273200 1.0208416e+09 9.999114e+08 
  273300 1.0296445e+09 1.0086095e+09 
  273400 1.0290276e+09 1.0084842e+09 
  273500 1.0233505e+09 1.0030061e+09 
  273600 1.0124202e+09 9.9171431e+08 
  273700 1.0255275e+09 1.0049562e+09 
  273800 1.0229025e+09 1.0025436e+09 
  273900 1.0169552e+09 9.9653143e+08 
  274000 1.0159761e+09 9.9564303e+08 
Loop time of 673.306 on 6 procs for 1000 steps with 31755 atoms

Pair  time (%) = 599.399 (89.0233)
Bond  time (%) = 0.771402 (0.114569)
Neigh time (%) = 5.10139 (0.757663)
Comm  time (%) = 34.3354 (5.09952)
Outpt time (%) = 2.09639 (0.311358)
Other time (%) = 31.6021 (4.69358)

Nlocal:    5292.5 ave 5407 max 5067 min
Histogram: 1 0 0 0 0 1 1 0 1 2
Nghost:    7834.5 ave 7924 max 7796 min
Histogram: 2 0 3 0 0 0 0 0 0 1
Neighs:    302647 ave 318521 max 284675 min
Histogram: 1 0 0 2 0 0 1 0 1 1
FullNghs: 605294 ave 635603 max 568880 min
Histogram: 1 0 0 2 0 0 1 0 0 2

Total # of neighbors = 3631766
Ave neighs/atom = 114.368
Ave special neighs/atom = 5.09986
Neighbor list builds = 100
Dangerous builds = 100
velocity all zero linear
WARNING: Use special bonds = 0,1,1 with bond style fene (bond_fene.cpp:189)
Memory usage per processor = 18.891 Mbytes
Step sdpd_kin pTemp 
  274000 1.0159758e+09 9.9564303e+08 
  274100 1.0289091e+09 1.0084783e+09 
  274200 1.0206729e+09 9.9995232e+08 
  274300 1.0187431e+09 9.9770073e+08 
  274400 1.0276472e+09 1.0067426e+09 
  274500 1.0240741e+09 1.0030469e+09 
  274600 1.0196093e+09 9.9866541e+08 
  274700 1.0205008e+09 9.9991882e+08 
  274800 1.0251423e+09 1.0046662e+09 
  274900 1.0238735e+09 1.003373e+09 
  275000 1.0210205e+09 1.0006235e+09 
Loop time of 672.958 on 6 procs for 1000 steps with 31755 atoms

Pair  time (%) = 600.512 (89.2348)
Bond  time (%) = 0.771865 (0.114697)
Neigh time (%) = 5.14173 (0.764049)
Comm  time (%) = 30.9896 (4.60498)
Outpt time (%) = 2.08493 (0.309816)
Other time (%) = 33.4574 (4.9717)

Nlocal:    5292.5 ave 5537 max 5186 min
Histogram: 3 0 0 2 0 0 0 0 0 1
Nghost:    7786.33 ave 8005 max 7562 min
Histogram: 1 0 1 1 0 0 0 2 0 1
Neighs:    301496 ave 324281 max 288607 min
Histogram: 2 1 0 1 0 1 0 0 0 1
FullNghs: 602991 ave 648632 max 577271 min
Histogram: 1 2 0 1 1 0 0 0 0 1

Total # of neighbors = 3617948
Ave neighs/atom = 113.933
Ave special neighs/atom = 5.09986
Neighbor list builds = 100
Dangerous builds = 100
velocity all zero linear
WARNING: Use special bonds = 0,1,1 with bond style fene (bond_fene.cpp:189)
Memory usage per processor = 18.891 Mbytes
Step sdpd_kin pTemp 
  275000 1.0210204e+09 1.0006235e+09 
  275100 1.0232322e+09 1.0033985e+09 
  275200 1.0219367e+09 1.0016718e+09 
  275300 1.0277021e+09 1.0069965e+09 
  275400 1.0132943e+09 9.9242199e+08 
  275500 1.0222309e+09 1.0014718e+09 
  275600 1.0193425e+09 9.9863735e+08 
  275700 1.0243539e+09 1.0033103e+09 
  275800 1.0249138e+09 1.0038589e+09 
  275900 1.0218434e+09 1.0010583e+09 
  276000 1.0264463e+09 1.0056488e+09 
Loop time of 688.762 on 6 procs for 1000 steps with 31755 atoms

Pair  time (%) = 599.462 (87.0347)
Bond  time (%) = 0.771272 (0.111979)
Neigh time (%) = 5.13055 (0.744894)
Comm  time (%) = 48.2469 (7.00488)
Outpt time (%) = 2.08912 (0.303316)
Other time (%) = 33.0622 (4.80023)

Nlocal:    5292.5 ave 5571 max 5122 min
Histogram: 2 0 0 2 0 1 0 0 0 1
Nghost:    7755 ave 7856 max 7595 min
Histogram: 1 0 0 1 0 0 1 1 0 2
Neighs:    301718 ave 327296 max 287053 min
Histogram: 2 0 1 1 0 1 0 0 0 1
FullNghs: 603436 ave 654661 max 574002 min
Histogram: 2 0 1 1 0 1 0 0 0 1

Total # of neighbors = 3620614
Ave neighs/atom = 114.017
Ave special neighs/atom = 5.09986
Neighbor list builds = 100
Dangerous builds = 100
velocity all zero linear
WARNING: Use special bonds = 0,1,1 with bond style fene (bond_fene.cpp:189)
Memory usage per processor = 18.1281 Mbytes
Step sdpd_kin pTemp 
  276000 1.0264463e+09 1.0056488e+09 
  276100 1.014244e+09 9.935595e+08 
  276200 1.0261223e+09 1.0048866e+09 
  276300 1.015313e+09 9.9426369e+08 
  276400 1.0231428e+09 1.001705e+09 
  276500 1.0295007e+09 1.0084431e+09 
  276600 1.0212119e+09 1.0000233e+09 
  276700 1.0215806e+09 1.0001993e+09 
  276800 1.0230131e+09 1.0023769e+09 
  276900 1.0221258e+09 1.0014026e+09 
  277000 1.0254377e+09 1.0046001e+09 
Loop time of 690.407 on 6 procs for 1000 steps with 31755 atoms

Pair  time (%) = 601.092 (87.0635)
Bond  time (%) = 0.766868 (0.111075)
Neigh time (%) = 5.12864 (0.742843)
Comm  time (%) = 47.5872 (6.89263)
Outpt time (%) = 2.09985 (0.304146)
Other time (%) = 33.7322 (4.88584)

Nlocal:    5292.5 ave 5401 max 5105 min
Histogram: 1 0 0 0 1 1 0 0 1 2
Nghost:    7757.17 ave 7917 max 7611 min
Histogram: 2 0 0 0 0 1 2 0 0 1
Neighs:    302879 ave 320421 max 277880 min
Histogram: 1 0 0 0 0 2 1 0 1 1
FullNghs: 605759 ave 641567 max 556633 min
Histogram: 1 0 0 0 1 1 1 1 0 1

Total # of neighbors = 3634552
Ave neighs/atom = 114.456
Ave special neighs/atom = 5.09986
Neighbor list builds = 100
Dangerous builds = 100
velocity all zero linear
WARNING: Use special bonds = 0,1,1 with bond style fene (bond_fene.cpp:189)
Memory usage per processor = 18.1281 Mbytes
Step sdpd_kin pTemp 
  277000 1.0254375e+09 1.0046001e+09 
  277100 1.0245939e+09 1.0036614e+09 
  277200 1.0246217e+09 1.0036582e+09 
  277300 1.0178055e+09 9.9706468e+08 
  277400 1.0298669e+09 1.0087465e+09 
  277500 1.0256801e+09 1.004276e+09 
  277600 1.033473e+09 1.0121676e+09 
  277700 1.0233744e+09 1.0019904e+09 
  277800 1.029012e+09 1.007593e+09 
  277900 1.0255299e+09 1.0047909e+09 
  278000 1.0214328e+09 1.0003243e+09 
Loop time of 669.917 on 6 procs for 1000 steps with 31755 atoms

Pair  time (%) = 601.857 (89.8405)
Bond  time (%) = 0.768775 (0.114757)
Neigh time (%) = 5.1349 (0.766498)
Comm  time (%) = 27.7336 (4.13986)
Outpt time (%) = 2.09093 (0.312117)
Other time (%) = 32.3319 (4.82625)

Nlocal:    5292.5 ave 5359 max 5211 min
Histogram: 1 1 0 0 0 1 1 0 0 2
Nghost:    7847 ave 8081 max 7715 min
Histogram: 1 1 1 2 0 0 0 0 0 1
Neighs:    303107 ave 311637 max 294315 min
Histogram: 2 0 0 0 1 1 0 0 0 2
FullNghs: 606214 ave 621969 max 588614 min
Histogram: 2 0 0 0 0 1 1 0 0 2

Total # of neighbors = 3637284
Ave neighs/atom = 114.542
Ave special neighs/atom = 5.09986
Neighbor list builds = 100
Dangerous builds = 100
velocity all zero linear
WARNING: Use special bonds = 0,1,1 with bond style fene (bond_fene.cpp:189)
Memory usage per processor = 18.891 Mbytes
Step sdpd_kin pTemp 
  278000 1.0214327e+09 1.0003243e+09 
  278100 1.0308494e+09 1.0096043e+09 
  278200 1.0180881e+09 9.9664705e+08 
  278300 1.0251242e+09 1.0035998e+09 
  278400 1.0276166e+09 1.0060986e+09 
  278500 1.0178759e+09 9.9721804e+08 
  278600 1.0211496e+09 1.000441e+09 
  278700 1.0212697e+09 1.0006506e+09 
  278800 1.0208331e+09 1.0000565e+09 
  278900 1.0076443e+09 9.867321e+08 
  279000 1.0278139e+09 1.0073326e+09 
Loop time of 667.28 on 6 procs for 1000 steps with 31755 atoms

Pair  time (%) = 599.214 (89.7995)
Bond  time (%) = 0.779988 (0.116891)
Neigh time (%) = 5.13491 (0.769529)
Comm  time (%) = 27.2374 (4.08185)
Outpt time (%) = 2.09998 (0.314707)
Other time (%) = 32.8139 (4.91755)

Nlocal:    5292.5 ave 5388 max 5229 min
Histogram: 2 1 1 0 0 0 0 0 0 2
Nghost:    7688.17 ave 7798 max 7579 min
Histogram: 1 1 0 0 2 0 0 0 1 1
Neighs:    301522 ave 314486 max 291056 min
Histogram: 1 0 2 0 1 0 1 0 0 1
FullNghs: 603044 ave 626214 max 584011 min
Histogram: 1 0 0 2 1 0 1 0 0 1

Total # of neighbors = 3618264
Ave neighs/atom = 113.943
Ave special neighs/atom = 5.09986
Neighbor list builds = 100
Dangerous builds = 100
velocity all zero linear
WARNING: Use special bonds = 0,1,1 with bond style fene (bond_fene.cpp:189)
Memory usage per processor = 18.1281 Mbytes
Step sdpd_kin pTemp 
  279000 1.0278138e+09 1.0073326e+09 
  279100 1.0213973e+09 1.0010029e+09 
  279200 1.0227921e+09 1.0020877e+09 
  279300 1.020358e+09 1.0000374e+09 
  279400 1.0271537e+09 1.0065713e+09 
  279500 1.0256543e+09 1.0052835e+09 
  279600 1.0308606e+09 1.0098511e+09 
  279700 1.0148956e+09 9.9415632e+08 
  279800 1.0200214e+09 9.9875706e+08 
  279900 1.0239104e+09 1.0030225e+09 
  280000 1.0175749e+09 9.9652931e+08 
Loop time of 659.933 on 6 procs for 1000 steps with 31755 atoms

Pair  time (%) = 596.381 (90.3699)
Bond  time (%) = 0.774616 (0.117378)
Neigh time (%) = 5.11155 (0.774555)
Comm  time (%) = 23.1813 (3.51267)
Outpt time (%) = 2.11826 (0.320982)
Other time (%) = 32.3664 (4.9045)

Nlocal:    5292.5 ave 5412 max 5193 min
Histogram: 2 0 1 0 0 0 0 2 0 1
Nghost:    7815.67 ave 7959 max 7699 min
Histogram: 1 2 0 0 1 0 0 0 0 2
Neighs:    301237 ave 312838 max 287652 min
Histogram: 1 0 1 0 1 0 0 1 1 1
FullNghs: 602474 ave 623726 max 578141 min
Histogram: 1 0 1 0 1 0 0 1 1 1

Total # of neighbors = 3614844
Ave neighs/atom = 113.835
Ave special neighs/atom = 5.09986
Neighbor list builds = 100
Dangerous builds = 99
velocity all zero linear
WARNING: Use special bonds = 0,1,1 with bond style fene (bond_fene.cpp:189)
Memory usage per processor = 18.1281 Mbytes
Step sdpd_kin pTemp 
  280000 1.0175747e+09 9.9652931e+08 
  280100 1.0198794e+09 9.9934358e+08 
  280200 1.0216962e+09 1.0009676e+09 
  280300 1.0333945e+09 1.0130633e+09 
  280400 1.017747e+09 9.9734532e+08 
  280500 1.0192719e+09 9.9879551e+08 
  280600 1.0195121e+09 9.9878745e+08 
  280700 1.0162399e+09 9.9600402e+08 
  280800 1.0126688e+09 9.9196195e+08 
  280900 1.0171883e+09 9.9660679e+08 
  281000 1.026282e+09 1.0057492e+09 
Loop time of 661.339 on 6 procs for 1000 steps with 31755 atoms

Pair  time (%) = 599.156 (90.5974)
Bond  time (%) = 0.788502 (0.119228)
Neigh time (%) = 5.12521 (0.774975)
Comm  time (%) = 21.9932 (3.32556)
Outpt time (%) = 2.0963 (0.316978)
Other time (%) = 32.1799 (4.86586)

Nlocal:    5292.5 ave 5371 max 5175 min
Histogram: 2 0 0 0 0 0 1 0 1 2
Nghost:    7761.67 ave 8056 max 7555 min
Histogram: 2 0 0 1 1 0 1 0 0 1
Neighs:    301937 ave 310615 max 288152 min
Histogram: 1 0 0 0 1 1 0 0 2 1
FullNghs: 603874 ave 621168 max 575392 min
Histogram: 1 0 0 1 0 0 1 0 2 1

Total # of neighbors = 3623242
Ave neighs/atom = 114.1
Ave special neighs/atom = 5.09986
Neighbor list builds = 100
Dangerous builds = 100
velocity all zero linear
WARNING: Use special bonds = 0,1,1 with bond style fene (bond_fene.cpp:189)
Memory usage per processor = 18.1281 Mbytes
Step sdpd_kin pTemp 
  281000 1.0262819e+09 1.0057492e+09 
  281100 1.020531e+09 1.0003346e+09 
  281200 1.0211448e+09 1.0002397e+09 
  281300 1.0190729e+09 9.9840795e+08 
  281400 1.0211507e+09 1.0001256e+09 
  281500 1.028948e+09 1.0086067e+09 
  281600  1.01921e+09 9.9888726e+08 
  281700 1.0237858e+09 1.0033805e+09 
  281800 1.0257869e+09 1.0051024e+09 
  281900 1.0179227e+09 9.9774423e+08 
  282000 1.0226557e+09 1.0022606e+09 
Loop time of 664.896 on 6 procs for 1000 steps with 31755 atoms

Pair  time (%) = 599.364 (90.1439)
Bond  time (%) = 0.770502 (0.115883)
Neigh time (%) = 5.13516 (0.772325)
Comm  time (%) = 24.0517 (3.61735)
Outpt time (%) = 2.10738 (0.316949)
Other time (%) = 33.4679 (5.03355)

Nlocal:    5292.5 ave 5425 max 5125 min
Histogram: 1 0 0 0 1 2 0 0 1 1
Nghost:    7790.17 ave 7984 max 7502 min
Histogram: 1 0 1 0 0 0 2 0 0 2
Neighs:    301205 ave 313505 max 283843 min
Histogram: 1 0 0 0 1 1 1 1 0 1
FullNghs: 602409 ave 625925 max 568641 min
Histogram: 1 0 0 0 1 1 0 2 0 1

Total # of neighbors = 3614456
Ave neighs/atom = 113.823
Ave special neighs/atom = 5.09986
Neighbor list builds = 100
Dangerous builds = 100
velocity all zero linear
WARNING: Use special bonds = 0,1,1 with bond style fene (bond_fene.cpp:189)
Memory usage per processor = 18.1281 Mbytes
Step sdpd_kin pTemp 
  282000 1.0226556e+09 1.0022606e+09 
  282100 1.0237887e+09 1.0031693e+09 
  282200 1.0293477e+09 1.0089341e+09 
  282300 1.0278861e+09 1.0068507e+09 
  282400 1.029282e+09 1.008657e+09 
  282500 1.0165109e+09 9.9593817e+08 
  282600 1.0247297e+09 1.0038913e+09 
  282700 1.0211301e+09 1.0006563e+09 
  282800 1.0197182e+09 9.9905739e+08 
  282900 1.0260235e+09 1.0054309e+09 
  283000 1.0258072e+09 1.004895e+09 
Loop time of 684.871 on 6 procs for 1000 steps with 31755 atoms

Pair  time (%) = 597.445 (87.2347)
Bond  time (%) = 0.758457 (0.110744)
Neigh time (%) = 5.08462 (0.74242)
Comm  time (%) = 46.4065 (6.77595)
Outpt time (%) = 2.09474 (0.305859)
Other time (%) = 33.0816 (4.83034)

Nlocal:    5292.5 ave 5499 max 5097 min
Histogram: 1 0 1 0 2 0 1 0 0 1
Nghost:    7756.33 ave 7885 max 7577 min
Histogram: 1 0 0 0 2 0 0 1 1 1
Neighs:    300520 ave 320835 max 279712 min
Histogram: 1 0 1 0 1 1 0 1 0 1
FullNghs: 601039 ave 639398 max 563070 min
Histogram: 1 0 1 0 1 1 1 0 0 1

Total # of neighbors = 3606236
Ave neighs/atom = 113.564
Ave special neighs/atom = 5.09986
Neighbor list builds = 100
Dangerous builds = 100
velocity all zero linear
WARNING: Use special bonds = 0,1,1 with bond style fene (bond_fene.cpp:189)
Memory usage per processor = 18.1281 Mbytes
Step sdpd_kin pTemp 
  283000 1.0258071e+09 1.004895e+09 
  283100 1.0200022e+09 9.9915109e+08 
  283200 1.024144e+09 1.0031838e+09 
  283300 1.0177482e+09 9.9688267e+08 
  283400 1.0281344e+09 1.0068981e+09 
  283500 1.0290343e+09 1.0077466e+09 
  283600 1.0233765e+09 1.0023918e+09 
  283700 1.0260404e+09 1.0051782e+09 
  283800 1.0327425e+09 1.0120437e+09 
  283900 1.0257347e+09 1.0050852e+09 
  284000 1.0260358e+09 1.0053462e+09 
Loop time of 676.94 on 6 procs for 1000 steps with 31755 atoms

Pair  time (%) = 597.825 (88.3128)
Bond  time (%) = 0.771525 (0.113972)
Neigh time (%) = 5.09739 (0.753005)
Comm  time (%) = 38.9189 (5.74923)
Outpt time (%) = 2.09729 (0.309819)
Other time (%) = 32.23 (4.76113)

Nlocal:    5292.5 ave 5383 max 5195 min
Histogram: 1 1 0 0 1 1 0 0 0 2
Nghost:    7815.67 ave 7963 max 7629 min
Histogram: 1 0 1 0 0 1 1 0 1 1
Neighs:    301783 ave 313524 max 291394 min
Histogram: 2 0 0 1 0 0 1 1 0 1
FullNghs: 603566 ave 625236 max 583744 min
Histogram: 2 0 0 1 0 0 0 2 0 1

Total # of neighbors = 3621394
Ave neighs/atom = 114.042
Ave special neighs/atom = 5.09986
Neighbor list builds = 100
Dangerous builds = 100
velocity all zero linear
WARNING: Use special bonds = 0,1,1 with bond style fene (bond_fene.cpp:189)
Memory usage per processor = 18.1281 Mbytes
Step sdpd_kin pTemp 
  284000 1.0260357e+09 1.0053462e+09 
  284100 1.0330752e+09 1.0113856e+09 
  284200 1.019675e+09 9.9836953e+08 
  284300 1.0212115e+09 9.9981305e+08 
  284400 1.0228151e+09 1.0012663e+09 
  284500  1.02073e+09 9.9951124e+08 
  284600 1.0165447e+09 9.9552633e+08 
  284700 1.0246852e+09 1.0033206e+09 
  284800 1.0274263e+09 1.0058307e+09 
  284900 1.0262472e+09 1.0047353e+09 
  285000 1.0331682e+09 1.0113062e+09 
Loop time of 665.638 on 6 procs for 1000 steps with 31755 atoms

Pair  time (%) = 599.766 (90.1039)
Bond  time (%) = 0.777014 (0.116732)
Neigh time (%) = 5.13923 (0.772076)
Comm  time (%) = 25.0655 (3.76563)
Outpt time (%) = 2.10027 (0.315528)
Other time (%) = 32.7902 (4.92613)

Nlocal:    5292.5 ave 5342 max 5261 min
Histogram: 3 0 0 0 1 0 0 1 0 1
Nghost:    7733.67 ave 7878 max 7529 min
Histogram: 2 0 0 0 0 0 1 0 0 3
Neighs:    303033 ave 310175 max 299048 min
Histogram: 1 2 0 0 2 0 0 0 0 1
FullNghs: 606065 ave 621158 max 598408 min
Histogram: 2 1 0 1 1 0 0 0 0 1

Total # of neighbors = 3636392
Ave neighs/atom = 114.514
Ave special neighs/atom = 5.09986
Neighbor list builds = 100
Dangerous builds = 100
velocity all zero linear
WARNING: Use special bonds = 0,1,1 with bond style fene (bond_fene.cpp:189)
Memory usage per processor = 18.891 Mbytes
Step sdpd_kin pTemp 
  285000 1.0331681e+09 1.0113062e+09 
  285100 1.0237436e+09 1.0017087e+09 
  285200 1.0196779e+09 9.9715258e+08 
  285300 1.0228073e+09 9.9988913e+08 
  285400 1.0309712e+09 1.0082609e+09 
  285500 1.0297948e+09 1.0066599e+09 
  285600 1.0202883e+09 9.9706716e+08 
  285700 1.0227144e+09 9.9931939e+08 
  285800 1.0263901e+09 1.0030268e+09 
  285900 1.0256306e+09 1.0019897e+09 
  286000 1.0225774e+09 9.9872739e+08 
Loop time of 656.007 on 6 procs for 1000 steps with 31755 atoms

Pair  time (%) = 600.698 (91.5688)
Bond  time (%) = 0.78881 (0.120244)
Neigh time (%) = 5.15496 (0.785809)
Comm  time (%) = 14.3187 (2.1827)
Outpt time (%) = 2.09798 (0.319811)
Other time (%) = 32.9487 (5.02261)

Nlocal:    5292.5 ave 5412 max 5157 min
Histogram: 1 0 0 0 1 2 1 0 0 1
Nghost:    7746.17 ave 7832 max 7660 min
Histogram: 1 1 0 0 1 0 1 1 0 1
Neighs:    301808 ave 312466 max 287969 min
Histogram: 1 0 0 0 1 1 1 1 0 1
FullNghs: 603616 ave 625045 max 576974 min
Histogram: 1 0 0 0 1 2 0 1 0 1

Total # of neighbors = 3621698
Ave neighs/atom = 114.051
Ave special neighs/atom = 5.09986
Neighbor list builds = 100
Dangerous builds = 100
velocity all zero linear
WARNING: Use special bonds = 0,1,1 with bond style fene (bond_fene.cpp:189)
Memory usage per processor = 18.891 Mbytes
Step sdpd_kin pTemp 
  286000 1.0225772e+09 9.9872739e+08 
  286100 1.0266205e+09 1.0027564e+09 
  286200 1.0223924e+09 9.992172e+08 
  286300 1.0297162e+09 1.0066658e+09 
  286400 1.0269513e+09 1.0039355e+09 
  286500 1.0223018e+09 9.9964827e+08 
  286600 1.0328952e+09 1.0102981e+09 
  286700  1.03286e+09 1.0105334e+09 
  286800 1.0256197e+09 1.0028972e+09 
  286900 1.0208403e+09 9.9817829e+08 
  287000 1.0238538e+09 1.0013285e+09 
Loop time of 672.135 on 6 procs for 1000 steps with 31755 atoms

Pair  time (%) = 598.824 (89.0929)
Bond  time (%) = 0.769653 (0.114509)
Neigh time (%) = 5.12046 (0.761821)
Comm  time (%) = 31.2575 (4.65049)
Outpt time (%) = 2.10552 (0.313259)
Other time (%) = 34.057 (5.06699)

Nlocal:    5292.5 ave 5611 max 5077 min
Histogram: 2 0 1 0 0 2 0 0 0 1
Nghost:    7812 ave 7961 max 7671 min
Histogram: 1 1 1 0 0 1 0 0 0 2
Neighs:    302597 ave 331300 max 280317 min
Histogram: 2 0 1 0 0 0 2 0 0 1
FullNghs: 605194 ave 662716 max 561432 min
Histogram: 2 0 1 0 0 0 2 0 0 1

Total # of neighbors = 3631164
Ave neighs/atom = 114.349
Ave special neighs/atom = 5.09986
Neighbor list builds = 100
Dangerous builds = 100
velocity all zero linear
WARNING: Use special bonds = 0,1,1 with bond style fene (bond_fene.cpp:189)
Memory usage per processor = 18.891 Mbytes
Step sdpd_kin pTemp 
  287000 1.0238535e+09 1.0013285e+09 
  287100 1.0290193e+09 1.0061517e+09 
  287200 1.0247888e+09 1.0017681e+09 
  287300 1.025351e+09 1.0026647e+09 
  287400 1.029703e+09 1.0070526e+09 
  287500 1.0244348e+09 1.0021092e+09 
  287600 1.0135141e+09 9.9086332e+08 
  287700 1.0256924e+09 1.0032633e+09 
  287800 1.0262618e+09 1.0039677e+09 
  287900 1.0241673e+09 1.0021652e+09 
  288000 1.024855e+09 1.0021683e+09 
Loop time of 685.299 on 6 procs for 1000 steps with 31755 atoms

Pair  time (%) = 600.379 (87.6083)
Bond  time (%) = 0.767949 (0.11206)
Neigh time (%) = 5.11497 (0.746385)
Comm  time (%) = 43.5834 (6.35976)
Outpt time (%) = 2.10441 (0.30708)
Other time (%) = 33.3495 (4.86641)

Nlocal:    5292.5 ave 5538 max 5181 min
Histogram: 2 1 1 1 0 0 0 0 0 1
Nghost:    7828 ave 8033 max 7545 min
Histogram: 1 0 0 0 1 1 0 1 1 1
Neighs:    301971 ave 326359 max 288739 min
Histogram: 2 0 0 2 1 0 0 0 0 1
FullNghs: 603941 ave 652387 max 577932 min
Histogram: 2 0 0 2 1 0 0 0 0 1

Total # of neighbors = 3623648
Ave neighs/atom = 114.113
Ave special neighs/atom = 5.09986
Neighbor list builds = 100
Dangerous builds = 100
velocity all zero linear
WARNING: Use special bonds = 0,1,1 with bond style fene (bond_fene.cpp:189)
Memory usage per processor = 18.891 Mbytes
Step sdpd_kin pTemp 
  288000 1.0248544e+09 1.0021683e+09 
  288100 1.0173856e+09 9.9484602e+08 
  288200 1.0266935e+09 1.0038164e+09 
  288300 1.0324082e+09 1.0090941e+09 
  288400 1.0396787e+09 1.0158962e+09 
  288500 1.033545e+09 1.0095551e+09 
  288600 1.0267129e+09 1.0028277e+09 
  288700 1.0197222e+09 9.9570964e+08 
  288800 1.0321589e+09 1.0077299e+09 
  288900 1.0267061e+09 1.0018777e+09 
  289000 1.0327326e+09 1.0081179e+09 
Loop time of 690.825 on 6 procs for 1000 steps with 31755 atoms

Pair  time (%) = 600.699 (86.9538)
Bond  time (%) = 0.765381 (0.110792)
Neigh time (%) = 5.10992 (0.739684)
Comm  time (%) = 49.4356 (7.15602)
Outpt time (%) = 2.08351 (0.301598)
Other time (%) = 32.7319 (4.73809)

Nlocal:    5292.5 ave 5475 max 5212 min
Histogram: 3 0 1 0 1 0 0 0 0 1
Nghost:    7859.83 ave 8063 max 7697 min
Histogram: 1 0 1 1 1 0 1 0 0 1
Neighs:    303316 ave 324533 max 293165 min
Histogram: 2 1 1 0 1 0 0 0 0 1
FullNghs: 606631 ave 647607 max 586113 min
Histogram: 2 1 1 0 1 0 0 0 0 1

Total # of neighbors = 3639786
Ave neighs/atom = 114.621
Ave special neighs/atom = 5.09986
Neighbor list builds = 100
Dangerous builds = 100
velocity all zero linear
WARNING: Use special bonds = 0,1,1 with bond style fene (bond_fene.cpp:189)
Memory usage per processor = 18.891 Mbytes
Step sdpd_kin pTemp 
  289000 1.0327319e+09 1.0081179e+09 
  289100 1.0322405e+09 1.0073453e+09 
  289200 1.0225455e+09 9.9809372e+08 
  289300 1.0262352e+09  1.00149e+09 
  289400 1.0244996e+09 9.9988414e+08 
  289500 1.0257063e+09 1.0011409e+09 
  289600 1.030168e+09 1.005039e+09 
  289700 1.0259764e+09 1.0009755e+09 
  289800 1.0247846e+09 1.0000684e+09 
  289900 1.0313441e+09 1.0068891e+09 
  290000 1.0325116e+09  1.00822e+09 
Loop time of 686.48 on 6 procs for 1000 steps with 31755 atoms

Pair  time (%) = 601.069 (87.5582)
Bond  time (%) = 0.773588 (0.112689)
Neigh time (%) = 5.12965 (0.747239)
Comm  time (%) = 43.431 (6.32663)
Outpt time (%) = 2.09206 (0.304752)
Other time (%) = 33.9843 (4.95052)

Nlocal:    5292.5 ave 5495 max 5166 min
Histogram: 1 1 1 0 1 1 0 0 0 1
Nghost:    7838.83 ave 7951 max 7662 min
Histogram: 1 0 0 0 1 0 2 0 0 2
Neighs:    303604 ave 325536 max 291876 min
Histogram: 2 0 1 1 1 0 0 0 0 1
FullNghs: 607207 ave 652407 max 584922 min
Histogram: 2 0 2 0 1 0 0 0 0 1

Total # of neighbors = 3643244
Ave neighs/atom = 114.73
Ave special neighs/atom = 5.09986
Neighbor list builds = 100
Dangerous builds = 99
velocity all zero linear
WARNING: Use special bonds = 0,1,1 with bond style fene (bond_fene.cpp:189)
Memory usage per processor = 18.891 Mbytes
Step sdpd_kin pTemp 
  290000 1.0325111e+09  1.00822e+09 
  290100 1.0261209e+09 1.0018211e+09 
  290200 1.0341998e+09 1.0099978e+09 
  290300 1.0238329e+09 9.9973292e+08 
  290400 1.017451e+09 9.938177e+08 
  290500 1.0339828e+09 1.0096528e+09 
  290600 1.0318584e+09 1.0071599e+09 
  290700 1.0204569e+09 9.9664922e+08 
  290800 1.0254334e+09 1.0016032e+09 
  290900 1.0305823e+09 1.0074291e+09 
  291000 1.0192167e+09 9.9567473e+08 
Loop time of 673.605 on 6 procs for 1000 steps with 31755 atoms

Pair  time (%) = 601.145 (89.2431)
Bond  time (%) = 0.772563 (0.114691)
Neigh time (%) = 5.13207 (0.761881)
Comm  time (%) = 31.0703 (4.61254)
Outpt time (%) = 2.06981 (0.307274)
Other time (%) = 33.4144 (4.96054)

Nlocal:    5292.5 ave 5412 max 5169 min
Histogram: 1 1 0 0 1 0 1 0 1 1
Nghost:    7924.67 ave 8101 max 7807 min
Histogram: 1 1 1 1 0 0 1 0 0 1
Neighs:    302430 ave 314173 max 292512 min
Histogram: 2 0 0 1 1 0 0 0 0 2
FullNghs: 604859 ave 629423 max 583054 min
Histogram: 1 1 0 1 1 0 0 0 1 1

Total # of neighbors = 3629156
Ave neighs/atom = 114.286
Ave special neighs/atom = 5.09986
Neighbor list builds = 100
Dangerous builds = 100
velocity all zero linear
WARNING: Use special bonds = 0,1,1 with bond style fene (bond_fene.cpp:189)
Memory usage per processor = 18.891 Mbytes
Step sdpd_kin pTemp 
  291000 1.0192166e+09 9.9567473e+08 
  291100 1.0261456e+09 1.0030035e+09 
  291200 1.0279479e+09 1.0045639e+09 
  291300 1.0248921e+09 1.0017009e+09 
  291400 1.0197358e+09 9.9631813e+08 
  291500 1.0247816e+09 1.0019085e+09 
  291600 1.0202419e+09 9.9685071e+08 
  291700 1.0289215e+09 1.0060981e+09 
  291800 1.0333005e+09 1.0110449e+09 
  291900 1.0206422e+09 9.9858521e+08 
  292000 1.0356708e+09 1.0131889e+09 
Loop time of 667.661 on 6 procs for 1000 steps with 31755 atoms

Pair  time (%) = 600.279 (89.9078)
Bond  time (%) = 0.779772 (0.116792)
Neigh time (%) = 5.14224 (0.770188)
Comm  time (%) = 24.0255 (3.59846)
Outpt time (%) = 2.07465 (0.310734)
Other time (%) = 35.3597 (5.29606)

Nlocal:    5292.5 ave 5423 max 5122 min
Histogram: 1 0 0 0 1 1 1 1 0 1
Nghost:    7937.33 ave 8020 max 7805 min
Histogram: 1 0 0 1 0 1 0 0 1 2
Neighs:    302332 ave 315353 max 285538 min
Histogram: 1 0 0 1 0 0 2 1 0 1
FullNghs: 604663 ave 629744 max 570998 min
Histogram: 1 0 0 0 1 0 1 2 0 1

Total # of neighbors = 3627980
Ave neighs/atom = 114.249
Ave special neighs/atom = 5.09986
Neighbor list builds = 100
Dangerous builds = 100
velocity all zero linear
WARNING: Use special bonds = 0,1,1 with bond style fene (bond_fene.cpp:189)
Memory usage per processor = 18.891 Mbytes
Step sdpd_kin pTemp 
  292000 1.0356708e+09 1.0131889e+09 
  292100 1.0200147e+09 9.9721971e+08 
  292200 1.0322876e+09 1.0094275e+09 
  292300 1.0327626e+09 1.0100705e+09 
  292400 1.0315057e+09 1.0091943e+09 
  292500 1.0258343e+09 1.0037732e+09 
  292600 1.0270035e+09 1.0055394e+09 
  292700 1.0185749e+09 9.973831e+08 
  292800 1.0202279e+09 9.9910894e+08 
  292900 1.020238e+09 9.991288e+08 
  293000 1.0239366e+09 1.0027912e+09 
Loop time of 668.68 on 6 procs for 1000 steps with 31755 atoms

Pair  time (%) = 601.962 (90.0225)
Bond  time (%) = 0.773601 (0.115691)
Neigh time (%) = 5.1402 (0.768709)
Comm  time (%) = 25.0516 (3.74642)
Outpt time (%) = 2.08237 (0.311415)
Other time (%) = 33.67 (5.03529)

Nlocal:    5292.5 ave 5432 max 5138 min
Histogram: 1 0 0 1 0 2 1 0 0 1
Nghost:    7963.83 ave 8190 max 7768 min
Histogram: 2 0 1 0 0 0 0 2 0 1
Neighs:    303206 ave 320399 max 288118 min
Histogram: 1 0 0 1 2 1 0 0 0 1
FullNghs: 606411 ave 643213 max 574203 min
Histogram: 1 0 0 1 2 1 0 0 0 1

Total # of neighbors = 3638468
Ave neighs/atom = 114.579
Ave special neighs/atom = 5.09986
Neighbor list builds = 100
Dangerous builds = 100
velocity all zero linear
WARNING: Use special bonds = 0,1,1 with bond style fene (bond_fene.cpp:189)
Memory usage per processor = 18.891 Mbytes
Step sdpd_kin pTemp 
  293000 1.0239365e+09 1.0027912e+09 
  293100 1.030996e+09 1.0097183e+09 
  293200 1.0270224e+09 1.0056308e+09 
  293300 1.0297183e+09 1.0082363e+09 
  293400 1.0242793e+09 1.0035055e+09 
  293500 1.0214833e+09 1.0007421e+09 
  293600 1.0236082e+09 1.0029748e+09 
  293700 1.0252323e+09 1.0052141e+09 
  293800 1.0249635e+09 1.0054018e+09 
  293900 1.0125859e+09 9.9269314e+08 
  294000 1.0221815e+09 1.0022985e+09 
Loop time of 682.909 on 6 procs for 1000 steps with 31755 atoms

Pair  time (%) = 603.092 (88.3123)
Bond  time (%) = 0.780079 (0.114229)
Neigh time (%) = 5.13831 (0.752415)
Comm  time (%) = 37.4543 (5.48452)
Outpt time (%) = 2.08677 (0.30557)
Other time (%) = 34.3571 (5.031)

Nlocal:    5292.5 ave 5385 max 5150 min
Histogram: 1 0 0 0 1 0 1 2 0 1
Nghost:    7898.17 ave 8284 max 7701 min
Histogram: 2 1 1 0 0 1 0 0 0 1
Neighs:    303911 ave 318939 max 287293 min
Histogram: 1 0 0 0 1 2 1 0 0 1
FullNghs: 607822 ave 636810 max 575051 min
Histogram: 1 0 0 0 1 2 1 0 0 1

Total # of neighbors = 3646932
Ave neighs/atom = 114.846
Ave special neighs/atom = 5.09986
Neighbor list builds = 100
Dangerous builds = 100
velocity all zero linear
WARNING: Use special bonds = 0,1,1 with bond style fene (bond_fene.cpp:189)
Memory usage per processor = 18.891 Mbytes
Step sdpd_kin pTemp 
  294000 1.0221814e+09 1.0022985e+09 
  294100 1.0210169e+09 1.0015264e+09 
  294200 1.0228227e+09 1.0033919e+09 
  294300 1.0317862e+09 1.0126043e+09 
  294400 1.0228955e+09 1.0036189e+09 
  294500 1.0215566e+09 1.001889e+09 
  294600 1.0097617e+09 9.9013229e+08 
  294700 1.0297449e+09 1.0102773e+09 
  294800 1.0123347e+09 9.9253887e+08 
  294900 1.0159298e+09 9.9603235e+08 
  295000 1.0181401e+09 9.9810899e+08 
Loop time of 674.783 on 6 procs for 1000 steps with 31755 atoms

Pair  time (%) = 602.631 (89.3073)
Bond  time (%) = 0.7839 (0.116171)
Neigh time (%) = 5.14536 (0.76252)
Comm  time (%) = 30.4144 (4.50728)
Outpt time (%) = 2.08053 (0.308325)
Other time (%) = 33.7282 (4.99837)

Nlocal:    5292.5 ave 5393 max 4968 min
Histogram: 1 0 0 0 0 0 0 0 2 3
Nghost:    7866.5 ave 8061 max 7722 min
Histogram: 1 0 2 0 1 0 1 0 0 1
Neighs:    303585 ave 315602 max 268590 min
Histogram: 1 0 0 0 0 0 0 1 1 3
FullNghs: 607169 ave 628943 max 536790 min
Histogram: 1 0 0 0 0 0 0 0 2 3

Total # of neighbors = 3643016
Ave neighs/atom = 114.723
Ave special neighs/atom = 5.09986
Neighbor list builds = 100
Dangerous builds = 100
velocity all zero linear
WARNING: Use special bonds = 0,1,1 with bond style fene (bond_fene.cpp:189)
Memory usage per processor = 18.891 Mbytes
Step sdpd_kin pTemp 
  295000 1.0181401e+09 9.9810899e+08 
  295100 1.028637e+09 1.0084875e+09 
  295200 1.0250188e+09 1.0051279e+09 
  295300 1.0198846e+09 1.0000025e+09 
  295400 1.0206377e+09 1.0004455e+09 
  295500 1.0272439e+09 1.0071015e+09 
  295600 1.0281406e+09 1.0076877e+09 
  295700 1.0209329e+09 1.0007558e+09 
  295800 1.0256585e+09 1.0055261e+09 
  295900 1.0173949e+09 9.9747904e+08 
  296000 1.0167065e+09 9.9658524e+08 
Loop time of 676.395 on 6 procs for 1000 steps with 31755 atoms

Pair  time (%) = 603.808 (89.2685)
Bond  time (%) = 0.775251 (0.114615)
Neigh time (%) = 5.13531 (0.759217)
Comm  time (%) = 31.0329 (4.58798)
Outpt time (%) = 2.09643 (0.309942)
Other time (%) = 33.5472 (4.9597)

Nlocal:    5292.5 ave 5419 max 5055 min
Histogram: 1 0 0 0 0 1 1 0 2 1
Nghost:    7945 ave 8125 max 7783 min
Histogram: 1 0 1 1 0 1 1 0 0 1
Neighs:    303711 ave 316116 max 277829 min
Histogram: 1 0 0 0 0 1 0 1 1 2
FullNghs: 607422 ave 631882 max 555728 min
Histogram: 1 0 0 0 0 1 0 1 1 2

Total # of neighbors = 3644532
Ave neighs/atom = 114.77
Ave special neighs/atom = 5.09986
Neighbor list builds = 100
Dangerous builds = 100
velocity all zero linear
WARNING: Use special bonds = 0,1,1 with bond style fene (bond_fene.cpp:189)
Memory usage per processor = 18.891 Mbytes
Step sdpd_kin pTemp 
  296000 1.0167065e+09 9.9658524e+08 
  296100 1.0211499e+09 1.0007581e+09 
  296200  1.02667e+09 1.0067749e+09 
  296300 1.0252329e+09 1.0051844e+09 
  296400 1.0247364e+09 1.0040393e+09 
  296500 1.0219314e+09 1.0016369e+09 
  296600 1.0221525e+09 1.0007273e+09 
  296700 1.0206818e+09 9.9945318e+08 
  296800 1.0258359e+09 1.0042502e+09 
  296900 1.0209255e+09 9.9943168e+08 
  297000 1.0221724e+09 1.0005818e+09 
Loop time of 677.095 on 6 procs for 1000 steps with 31755 atoms

Pair  time (%) = 605.385 (89.4092)
Bond  time (%) = 0.783996 (0.115788)
Neigh time (%) = 5.17821 (0.764769)
Comm  time (%) = 28.7084 (4.23994)
Outpt time (%) = 2.09799 (0.309851)
Other time (%) = 34.9409 (5.16042)

Nlocal:    5292.5 ave 5328 max 5222 min
Histogram: 1 0 0 0 0 1 0 2 1 1
Nghost:    7984.17 ave 8133 max 7676 min
Histogram: 1 0 0 0 0 1 0 0 3 1
Neighs:    303404 ave 311751 max 290556 min
Histogram: 1 0 0 0 0 1 1 2 0 1
FullNghs: 606808 ave 623976 max 580841 min
Histogram: 1 0 0 0 0 0 3 1 0 1

Total # of neighbors = 3640848
Ave neighs/atom = 114.654
Ave special neighs/atom = 5.09986
Neighbor list builds = 100
Dangerous builds = 100
velocity all zero linear
WARNING: Use special bonds = 0,1,1 with bond style fene (bond_fene.cpp:189)
Memory usage per processor = 18.891 Mbytes
Step sdpd_kin pTemp 
  297000 1.0221724e+09 1.0005818e+09 
  297100 1.0283264e+09 1.0069902e+09 
  297200 1.0281511e+09 1.0058783e+09 
  297300 1.0216561e+09 1.0001757e+09 
  297400 1.0274826e+09 1.0060438e+09 
  297500 1.0224385e+09 1.001032e+09 
  297600 1.030239e+09 1.0092049e+09 
  297700 1.0210947e+09 1.0000967e+09 
  297800 1.0218666e+09 1.0012017e+09 
  297900 1.0194799e+09 9.9792296e+08 
  298000 1.0315408e+09 1.0096363e+09 
Loop time of 675.768 on 6 procs for 1000 steps with 31755 atoms

Pair  time (%) = 602.898 (89.2167)
Bond  time (%) = 0.775918 (0.11482)
Neigh time (%) = 5.15864 (0.763375)
Comm  time (%) = 31.9236 (4.72404)
Outpt time (%) = 2.09199 (0.309572)
Other time (%) = 32.9202 (4.87153)

Nlocal:    5292.5 ave 5513 max 5125 min
Histogram: 2 0 1 0 0 0 2 0 0 1
Nghost:    7789 ave 7998 max 7641 min
Histogram: 2 0 2 0 0 0 0 0 0 2
Neighs:    303043 ave 323898 max 286339 min
Histogram: 1 1 0 1 0 1 1 0 0 1
FullNghs: 606086 ave 647452 max 572889 min
Histogram: 2 0 0 1 0 1 0 1 0 1

Total # of neighbors = 3636518
Ave neighs/atom = 114.518
Ave special neighs/atom = 5.09986
Neighbor list builds = 100
Dangerous builds = 100
velocity all zero linear
WARNING: Use special bonds = 0,1,1 with bond style fene (bond_fene.cpp:189)
Memory usage per processor = 18.891 Mbytes
Step sdpd_kin pTemp 
  298000 1.0315408e+09 1.0096363e+09 
  298100 1.019421e+09 9.9753656e+08 
  298200 1.0267094e+09 1.0049839e+09 
  298300 1.0181953e+09 9.9650665e+08 
  298400 1.0267362e+09 1.0048062e+09 
  298500 1.0221128e+09 1.0006094e+09 
  298600 1.0324367e+09 1.0106845e+09 
  298700 1.0223919e+09 1.001203e+09 
  298800 1.0225972e+09 1.0006641e+09 
  298900 1.0265988e+09 1.0050363e+09 
  299000 1.027345e+09 1.0057329e+09 
Loop time of 679.762 on 6 procs for 1000 steps with 31755 atoms

Pair  time (%) = 601.116 (88.4304)
Bond  time (%) = 0.770177 (0.113301)
Neigh time (%) = 5.14187 (0.756423)
Comm  time (%) = 37.4208 (5.50499)
Outpt time (%) = 2.10146 (0.309147)
Other time (%) = 33.2115 (4.88575)

Nlocal:    5292.5 ave 5403 max 5129 min
Histogram: 1 0 0 2 0 0 0 0 0 3
Nghost:    7796.33 ave 7964 max 7639 min
Histogram: 2 0 0 1 0 1 0 0 1 1
Neighs:    302250 ave 314812 max 289238 min
Histogram: 2 0 1 0 0 0 0 0 1 2
FullNghs: 604501 ave 628790 max 578541 min
Histogram: 2 0 1 0 0 0 0 0 0 3

Total # of neighbors = 3627006
Ave neighs/atom = 114.218
Ave special neighs/atom = 5.09986
Neighbor list builds = 100
Dangerous builds = 100
velocity all zero linear
WARNING: Use special bonds = 0,1,1 with bond style fene (bond_fene.cpp:189)
Memory usage per processor = 18.891 Mbytes
Step sdpd_kin pTemp 
  299000 1.027345e+09 1.0057329e+09 
  299100 1.0195532e+09 9.9837589e+08 
  299200 1.0286121e+09 1.0074995e+09 
  299300 1.0173416e+09 9.9673943e+08 
  299400 1.0172289e+09 9.9722694e+08 
  299500 1.0264171e+09 1.0060879e+09 
  299600 1.0248489e+09 1.0042456e+09 
  299700 1.0233438e+09 1.0028863e+09 
  299800 1.0156881e+09 9.9522811e+08 
  299900 1.0147624e+09 9.9458302e+08 
  300000 1.0167873e+09 9.962762e+08 
Loop time of 669.822 on 6 procs for 1000 steps with 31755 atoms

Pair  time (%) = 600.193 (89.6048)
Bond  time (%) = 0.775717 (0.115809)
Neigh time (%) = 5.12448 (0.765051)
Comm  time (%) = 28.97 (4.32503)
Outpt time (%) = 2.10406 (0.314122)
Other time (%) = 32.6552 (4.87521)

Nlocal:    5292.5 ave 5384 max 5072 min
Histogram: 1 0 0 0 0 0 1 1 1 2
Nghost:    7775.83 ave 8021 max 7592 min
Histogram: 1 1 1 1 0 0 0 0 1 1
Neighs:    302247 ave 311766 max 284761 min
Histogram: 1 0 0 1 0 0 1 0 1 2
FullNghs: 604493 ave 622825 max 569265 min
Histogram: 1 0 0 1 0 0 1 0 0 3

Total # of neighbors = 3626960
Ave neighs/atom = 114.217
Ave special neighs/atom = 5.09986
Neighbor list builds = 100
Dangerous builds = 99
velocity all zero linear
WARNING: Use special bonds = 0,1,1 with bond style fene (bond_fene.cpp:189)
Memory usage per processor = 18.891 Mbytes
Step sdpd_kin pTemp 
  300000 1.0167872e+09 9.962762e+08 
  300100 1.0136983e+09 9.9325633e+08 
  300200 1.0199437e+09 9.994511e+08 
  300300 1.0195645e+09 9.9898318e+08 
  300400 1.0190874e+09 9.983366e+08 
  300500 1.0212764e+09 1.0007181e+09 
  300600 1.0288869e+09 1.0084023e+09 
  300700 1.0296718e+09 1.0091018e+09 
  300800 1.0256119e+09 1.0049752e+09 
  300900 1.0249337e+09 1.0042809e+09 
  301000 1.0195727e+09 9.9869559e+08 
Loop time of 661.393 on 6 procs for 1000 steps with 31755 atoms

Pair  time (%) = 600.817 (90.8411)
Bond  time (%) = 0.786986 (0.118989)
Neigh time (%) = 5.13879 (0.776965)
Comm  time (%) = 19.9386 (3.01464)
Outpt time (%) = 2.08096 (0.314633)
Other time (%) = 32.6307 (4.93363)

Nlocal:    5292.5 ave 5400 max 5243 min
Histogram: 2 1 0 2 0 0 0 0 0 1
Nghost:    7901.5 ave 8227 max 7659 min
Histogram: 1 0 2 1 0 0 1 0 0 1
Neighs:    301926 ave 310514 max 298235 min
Histogram: 3 0 1 0 0 1 0 0 0 1
FullNghs: 603851 ave 622505 max 597003 min
Histogram: 3 1 0 1 0 0 0 0 0 1

Total # of neighbors = 3623106
Ave neighs/atom = 114.096
Ave special neighs/atom = 5.09986
Neighbor list builds = 100
Dangerous builds = 100
velocity all zero linear
WARNING: Use special bonds = 0,1,1 with bond style fene (bond_fene.cpp:189)
Memory usage per processor = 18.891 Mbytes
Step sdpd_kin pTemp 
  301000 1.0195726e+09 9.9869559e+08 
  301100 1.030966e+09 1.0099446e+09 
  301200 1.0189323e+09 9.9788926e+08 
  301300 1.0183467e+09 9.9781251e+08 
  301400 1.0208906e+09 1.0004702e+09 
  301500 1.0224202e+09 1.0018181e+09 
  301600 1.0272565e+09 1.0066746e+09 
  301700 1.0160499e+09 9.9573066e+08 
  301800 1.0208058e+09 1.0007322e+09 
  301900 1.0202643e+09 9.9989961e+08 
  302000 1.0278771e+09 1.0075906e+09 
Loop time of 671.774 on 6 procs for 1000 steps with 31755 atoms

Pair  time (%) = 601.403 (89.5245)
Bond  time (%) = 0.791589 (0.117836)
Neigh time (%) = 5.16898 (0.769453)
Comm  time (%) = 26.6496 (3.96705)
Outpt time (%) = 2.09713 (0.312178)
Other time (%) = 35.6643 (5.30897)

Nlocal:    5292.5 ave 5400 max 5180 min
Histogram: 1 0 0 1 1 1 0 1 0 1
Nghost:    7807.67 ave 7958 max 7576 min
Histogram: 1 0 0 0 1 1 1 0 0 2
Neighs:    301829 ave 314927 max 291212 min
Histogram: 1 0 1 1 0 2 0 0 0 1
FullNghs: 603658 ave 630655 max 583468 min
Histogram: 1 1 0 1 1 1 0 0 0 1

Total # of neighbors = 3621946
Ave neighs/atom = 114.059
Ave special neighs/atom = 5.09986
Neighbor list builds = 100
Dangerous builds = 100
velocity all zero linear
WARNING: Use special bonds = 0,1,1 with bond style fene (bond_fene.cpp:189)
Memory usage per processor = 18.891 Mbytes
Step sdpd_kin pTemp 
  302000 1.0278767e+09 1.0075906e+09 
  302100 1.0255178e+09 1.0049036e+09 
  302200 1.0212998e+09 1.0008418e+09 
  302300 1.0258049e+09 1.0051052e+09 
  302400 1.0232078e+09 1.0024406e+09 
  302500 1.0243157e+09 1.0034859e+09 
  302600 1.0306915e+09 1.0098195e+09 
  302700 1.026941e+09 1.0057004e+09 
  302800 1.0259067e+09 1.0047208e+09 
  302900 1.0186911e+09 9.9768864e+08 
  303000 1.0238766e+09 1.0033383e+09 
Loop time of 668.66 on 6 procs for 1000 steps with 31755 atoms

Pair  time (%) = 599.212 (89.6138)
Bond  time (%) = 0.774184 (0.115782)
Neigh time (%) = 5.11957 (0.765646)
Comm  time (%) = 29.5298 (4.41627)
Outpt time (%) = 2.08434 (0.31172)
Other time (%) = 31.9402 (4.77675)

Nlocal:    5292.5 ave 5416 max 5189 min
Histogram: 1 0 1 0 2 0 1 0 0 1
Nghost:    7817.67 ave 7899 max 7716 min
Histogram: 1 0 0 1 1 1 0 0 0 2
Neighs:    302267 ave 312019 max 292182 min
Histogram: 1 0 0 1 2 0 0 0 1 1
FullNghs: 604534 ave 624933 max 584783 min
Histogram: 1 0 0 2 1 0 0 0 1 1

Total # of neighbors = 3627206
Ave neighs/atom = 114.225
Ave special neighs/atom = 5.09986
Neighbor list builds = 100
Dangerous builds = 100
velocity all zero linear
WARNING: Use special bonds = 0,1,1 with bond style fene (bond_fene.cpp:189)
Memory usage per processor = 18.891 Mbytes
Step sdpd_kin pTemp 
  303000 1.0238761e+09 1.0033383e+09 
  303100 1.0249991e+09 1.0039254e+09 
  303200 1.027592e+09 1.0065668e+09 
  303300 1.0276976e+09 1.0066931e+09 
  303400 1.0264577e+09 1.0056192e+09 
  303500 1.0170199e+09 9.9601204e+08 
  303600 1.0223821e+09 1.0011863e+09 
  303700 1.0386881e+09 1.0171393e+09 
  303800 1.0270565e+09 1.0059924e+09 
  303900 1.025423e+09 1.0037987e+09 
  304000 1.0225628e+09 1.0014406e+09 
Loop time of 659.957 on 6 procs for 1000 steps with 31755 atoms

Pair  time (%) = 599.133 (90.7836)
Bond  time (%) = 0.784033 (0.118801)
Neigh time (%) = 5.16851 (0.783158)
Comm  time (%) = 18.9954 (2.87828)
Outpt time (%) = 2.0886 (0.316475)
Other time (%) = 33.7875 (5.11966)

Nlocal:    5292.5 ave 5408 max 5143 min
Histogram: 1 0 0 1 1 0 0 1 1 1
Nghost:    7867.67 ave 8068 max 7661 min
Histogram: 1 0 1 0 2 0 0 0 1 1
Neighs:    302405 ave 312719 max 289143 min
Histogram: 1 0 0 1 0 1 0 2 0 1
FullNghs: 604810 ave 627034 max 578434 min
Histogram: 1 0 1 0 0 1 1 1 0 1

Total # of neighbors = 3628862
Ave neighs/atom = 114.277
Ave special neighs/atom = 5.09986
Neighbor list builds = 100
Dangerous builds = 100
velocity all zero linear
WARNING: Use special bonds = 0,1,1 with bond style fene (bond_fene.cpp:189)
Memory usage per processor = 18.891 Mbytes
Step sdpd_kin pTemp 
  304000 1.0225623e+09 1.0014406e+09 
  304100 1.0355717e+09 1.0147032e+09 
  304200 1.0307506e+09 1.0098232e+09 
  304300 1.0248707e+09 1.0035188e+09 
  304400 1.0257184e+09 1.0040262e+09 
  304500 1.0277027e+09 1.0057547e+09 
  304600 1.0253267e+09 1.0032305e+09 
  304700 1.0252119e+09 1.0032739e+09 
  304800 1.0184424e+09 9.9661088e+08 
  304900 1.0305698e+09 1.0084889e+09 
  305000 1.0273221e+09 1.0052783e+09 
Loop time of 666.607 on 6 procs for 1000 steps with 31755 atoms

Pair  time (%) = 599.283 (89.9005)
Bond  time (%) = 0.784934 (0.117751)
Neigh time (%) = 5.14154 (0.7713)
Comm  time (%) = 26.8553 (4.02865)
Outpt time (%) = 2.08691 (0.313065)
Other time (%) = 32.4556 (4.86877)

Nlocal:    5292.5 ave 5400 max 5215 min
Histogram: 2 0 0 1 0 1 1 0 0 1
Nghost:    7834 ave 7938 max 7563 min
Histogram: 1 0 0 0 0 0 0 1 2 2
Neighs:    302249 ave 314269 max 293286 min
Histogram: 1 0 1 1 2 0 0 0 0 1
FullNghs: 604498 ave 628428 max 586007 min
Histogram: 1 1 0 0 2 1 0 0 0 1

Total # of neighbors = 3626990
Ave neighs/atom = 114.218
Ave special neighs/atom = 5.09986
Neighbor list builds = 100
Dangerous builds = 100
velocity all zero linear
WARNING: Use special bonds = 0,1,1 with bond style fene (bond_fene.cpp:189)
Memory usage per processor = 18.891 Mbytes
Step sdpd_kin pTemp 
  305000 1.0273218e+09 1.0052783e+09 
  305100 1.0222897e+09 1.0004016e+09 
  305200 1.0255551e+09 1.003545e+09 
  305300 1.0221313e+09 9.9977754e+08 
  305400 1.0268213e+09 1.0042215e+09 
  305500 1.0211073e+09 9.9879917e+08 
  305600 1.0213669e+09 9.9896061e+08 
  305700 1.0280558e+09 1.0057174e+09 
  305800 1.0265073e+09 1.0040379e+09 
  305900 1.0248266e+09 1.0024531e+09 
  306000 1.0207576e+09 9.980179e+08 
Loop time of 670.217 on 6 procs for 1000 steps with 31755 atoms

Pair  time (%) = 601.26 (89.7114)
Bond  time (%) = 0.783401 (0.116888)
Neigh time (%) = 5.1626 (0.770289)
Comm  time (%) = 26.9061 (4.01453)
Outpt time (%) = 2.08447 (0.311014)
Other time (%) = 34.0197 (5.07592)

Nlocal:    5292.5 ave 5348 max 5249 min
Histogram: 1 0 0 3 0 1 0 0 0 1
Nghost:    7910 ave 8017 max 7829 min
Histogram: 2 0 0 1 0 1 0 1 0 1
Neighs:    302562 ave 312030 max 297493 min
Histogram: 2 0 2 0 0 1 0 0 0 1
FullNghs: 605125 ave 622655 max 595614 min
Histogram: 1 1 2 0 0 1 0 0 0 1

Total # of neighbors = 3630748
Ave neighs/atom = 114.336
Ave special neighs/atom = 5.09986
Neighbor list builds = 100
Dangerous builds = 100
velocity all zero linear
WARNING: Use special bonds = 0,1,1 with bond style fene (bond_fene.cpp:189)
Memory usage per processor = 18.891 Mbytes
Step sdpd_kin pTemp 
  306000 1.0207574e+09 9.980179e+08 
  306100 1.0305801e+09 1.0077259e+09 
  306200 1.026128e+09 1.0037621e+09 
  306300 1.0348904e+09 1.0121856e+09 
  306400 1.031273e+09 1.0083925e+09 
  306500 1.0209742e+09 9.9824167e+08 
  306600 1.0309171e+09 1.0083736e+09 
  306700 1.0392072e+09 1.0168179e+09 
  306800 1.0312929e+09 1.0085857e+09 
  306900 1.0294726e+09 1.0067895e+09 
  307000 1.0251729e+09 1.0018728e+09 
Loop time of 660.828 on 6 procs for 1000 steps with 31755 atoms

Pair  time (%) = 600.517 (90.8735)
Bond  time (%) = 0.790798 (0.119668)
Neigh time (%) = 5.17318 (0.782833)
Comm  time (%) = 16.5364 (2.50237)
Outpt time (%) = 2.0789 (0.314591)
Other time (%) = 35.7311 (5.40703)

Nlocal:    5292.5 ave 5372 max 5188 min
Histogram: 2 0 0 0 0 0 1 1 0 2
Nghost:    7888.33 ave 8017 max 7774 min
Histogram: 1 0 1 1 1 0 0 1 0 1
Neighs:    302787 ave 308835 max 293628 min
Histogram: 2 0 0 0 0 0 1 0 1 2
FullNghs: 605575 ave 618087 max 586896 min
Histogram: 1 1 0 0 0 0 1 1 0 2

Total # of neighbors = 3633448
Ave neighs/atom = 114.421
Ave special neighs/atom = 5.09986
Neighbor list builds = 100
Dangerous builds = 100
velocity all zero linear
WARNING: Use special bonds = 0,1,1 with bond style fene (bond_fene.cpp:189)
Memory usage per processor = 18.891 Mbytes
Step sdpd_kin pTemp 
  307000 1.0251726e+09 1.0018728e+09 
  307100 1.0169513e+09 9.938512e+08 
  307200 1.0276404e+09 1.0042479e+09 
  307300 1.030721e+09 1.0071755e+09 
  307400 1.0303636e+09 1.0072434e+09 
  307500 1.0251169e+09 1.0023499e+09 
  307600 1.0219616e+09 9.9839269e+08 
  307700 1.0262028e+09 1.0026922e+09 
  307800 1.0189694e+09 9.9582358e+08 
  307900 1.0244037e+09 1.0014558e+09 
  308000 1.0349962e+09 1.0119568e+09 
Loop time of 675.787 on 6 procs for 1000 steps with 31755 atoms

Pair  time (%) = 602.241 (89.117)
Bond  time (%) = 0.778062 (0.115134)
Neigh time (%) = 5.15001 (0.762075)
Comm  time (%) = 29.9858 (4.43717)
Outpt time (%) = 2.09219 (0.309593)
Other time (%) = 35.54 (5.25905)

Nlocal:    5292.5 ave 5414 max 5188 min
Histogram: 2 0 1 0 0 0 1 0 1 1
Nghost:    7847.5 ave 8027 max 7721 min
Histogram: 1 1 0 0 2 1 0 0 0 1
Neighs:    302187 ave 317323 max 290247 min
Histogram: 1 1 1 0 0 1 1 0 0 1
FullNghs: 604373 ave 635980 max 580191 min
Histogram: 1 1 1 0 0 1 1 0 0 1

Total # of neighbors = 3626240
Ave neighs/atom = 114.194
Ave special neighs/atom = 5.09986
Neighbor list builds = 100
Dangerous builds = 100
velocity all zero linear
WARNING: Use special bonds = 0,1,1 with bond style fene (bond_fene.cpp:189)
Memory usage per processor = 18.891 Mbytes
Step sdpd_kin pTemp 
  308000 1.0349959e+09 1.0119568e+09 
  308100 1.0245036e+09 1.0018578e+09 
  308200 1.0214254e+09 9.9886409e+08 
  308300 1.021679e+09 9.9906391e+08 
  308400 1.0186678e+09 9.9546247e+08 
  308500 1.0301564e+09 1.0071193e+09 
  308600 1.0235122e+09 1.0006826e+09 
  308700 1.0179246e+09 9.953791e+08 
  308800 1.0273311e+09 1.0043054e+09 
  308900 1.0261155e+09 1.002769e+09 
  309000 1.0269646e+09 1.0036224e+09 
Loop time of 692.007 on 6 procs for 1000 steps with 31755 atoms

Pair  time (%) = 603.422 (87.1989)
Bond  time (%) = 0.775245 (0.112028)
Neigh time (%) = 5.14224 (0.743091)
Comm  time (%) = 45.6663 (6.59911)
Outpt time (%) = 2.09835 (0.303227)
Other time (%) = 34.9025 (5.04367)

Nlocal:    5292.5 ave 5435 max 5045 min
Histogram: 1 0 0 0 0 1 0 3 0 1
Nghost:    7765.5 ave 7872 max 7612 min
Histogram: 1 0 0 1 0 1 1 0 0 2
Neighs:    302445 ave 320244 max 275712 min
Histogram: 1 0 0 0 0 1 1 2 0 1
FullNghs: 604890 ave 639366 max 552853 min
Histogram: 1 0 0 0 0 1 1 2 0 1

Total # of neighbors = 3629338
Ave neighs/atom = 114.292
Ave special neighs/atom = 5.09986
Neighbor list builds = 100
Dangerous builds = 100
velocity all zero linear
WARNING: Use special bonds = 0,1,1 with bond style fene (bond_fene.cpp:189)
Memory usage per processor = 18.891 Mbytes
Step sdpd_kin pTemp 
  309000 1.0269642e+09 1.0036224e+09 
  309100 1.0263683e+09 1.0031707e+09 
  309200 1.0287336e+09 1.0055541e+09 
  309300 1.0276765e+09 1.0047666e+09 
  309400 1.0232001e+09 1.000504e+09 
  309500 1.0339995e+09 1.0112134e+09 
  309600 1.029048e+09 1.0067123e+09 
  309700 1.0280022e+09 1.0053139e+09 
  309800 1.0227312e+09 9.9989932e+08 
  309900 1.0264264e+09 1.0037827e+09 
  310000 1.0189801e+09 9.9695275e+08 
Loop time of 679.74 on 6 procs for 1000 steps with 31755 atoms

Pair  time (%) = 602.575 (88.6479)
Bond  time (%) = 0.769676 (0.113231)
Neigh time (%) = 5.13529 (0.755478)
Comm  time (%) = 35.6987 (5.25181)
Outpt time (%) = 2.10557 (0.309761)
Other time (%) = 33.4559 (4.92187)

Nlocal:    5292.5 ave 5416 max 5017 min
Histogram: 1 0 0 0 0 0 1 2 0 2
Nghost:    7694.33 ave 7917 max 7237 min
Histogram: 1 0 0 0 0 0 1 2 1 1
Neighs:    302763 ave 317338 max 276976 min
Histogram: 1 0 0 0 0 1 1 0 2 1
FullNghs: 605526 ave 634561 max 552317 min
Histogram: 1 0 0 0 0 1 1 0 2 1

Total # of neighbors = 3633156
Ave neighs/atom = 114.412
Ave special neighs/atom = 5.09986
Neighbor list builds = 100
Dangerous builds = 99
velocity all zero linear
WARNING: Use special bonds = 0,1,1 with bond style fene (bond_fene.cpp:189)
Memory usage per processor = 18.891 Mbytes
Step sdpd_kin pTemp 
  310000 1.0189795e+09 9.9695275e+08 
  310100 1.0285959e+09 1.0064375e+09 
  310200 1.0176252e+09 9.9490182e+08 
  310300 1.0234733e+09 1.0014538e+09 
  310400 1.0268923e+09 1.0044927e+09 
  310500 1.023551e+09 1.0012149e+09 
  310600 1.0216686e+09 9.9952766e+08 
  310700 1.0258284e+09 1.0037043e+09 
  310800 1.019448e+09 9.9791434e+08 
  310900 1.0288298e+09 1.0078217e+09 
  311000 1.0261855e+09 1.0050559e+09 
Loop time of 672.847 on 6 procs for 1000 steps with 31755 atoms

Pair  time (%) = 601.64 (89.417)
Bond  time (%) = 0.763234 (0.113433)
Neigh time (%) = 5.12129 (0.761137)
Comm  time (%) = 30.954 (4.60045)
Outpt time (%) = 2.07159 (0.307883)
Other time (%) = 32.2972 (4.80008)

Nlocal:    5292.5 ave 5487 max 5067 min
Histogram: 1 0 1 0 0 0 3 0 0 1
Nghost:    7656.17 ave 7729 max 7578 min
Histogram: 1 1 0 0 1 0 1 0 0 2
Neighs:    302244 ave 319841 max 281971 min
Histogram: 1 1 0 0 0 1 0 2 0 1
FullNghs: 604489 ave 641884 max 563629 min
Histogram: 1 0 1 0 0 1 1 1 0 1

Total # of neighbors = 3626934
Ave neighs/atom = 114.216
Ave special neighs/atom = 5.09986
Neighbor list builds = 100
Dangerous builds = 100
velocity all zero linear
WARNING: Use special bonds = 0,1,1 with bond style fene (bond_fene.cpp:189)
Memory usage per processor = 18.891 Mbytes
Step sdpd_kin pTemp 
  311000 1.0261851e+09 1.0050559e+09 
  311100 1.0242803e+09 1.0032652e+09 
  311200 1.0151196e+09 9.9424842e+08 
  311300 1.0231763e+09 1.0020949e+09 
  311400 1.0272461e+09 1.0064701e+09 
  311500 1.0222699e+09 1.0016112e+09 
  311600 1.0216171e+09 1.0012823e+09 
  311700 1.0191964e+09 9.9878379e+08 
  311800 1.016734e+09 9.9623947e+08 
  311900 1.0280168e+09 1.0076682e+09 
  312000 1.0266581e+09 1.0064851e+09 
Loop time of 675.934 on 6 procs for 1000 steps with 31755 atoms

Pair  time (%) = 600.611 (88.8565)
Bond  time (%) = 0.767301 (0.113517)
Neigh time (%) = 5.11729 (0.75707)
Comm  time (%) = 33.8867 (5.01331)
Outpt time (%) = 2.09578 (0.310056)
Other time (%) = 33.4557 (4.94955)

Nlocal:    5292.5 ave 5480 max 5128 min
Histogram: 2 0 0 0 1 1 0 1 0 1
Nghost:    7669.17 ave 7782 max 7537 min
Histogram: 1 0 0 0 3 0 0 0 1 1
Neighs:    302046 ave 318813 max 282824 min
Histogram: 1 1 0 0 0 1 1 0 1 1
FullNghs: 604091 ave 639511 max 563959 min
Histogram: 1 1 0 0 0 2 0 0 1 1

Total # of neighbors = 3624548
Ave neighs/atom = 114.141
Ave special neighs/atom = 5.09986
Neighbor list builds = 100
Dangerous builds = 100
velocity all zero linear
WARNING: Use special bonds = 0,1,1 with bond style fene (bond_fene.cpp:189)
Memory usage per processor = 18.891 Mbytes
Step sdpd_kin pTemp 
  312000 1.0266579e+09 1.0064851e+09 
  312100 1.0229506e+09 1.0025239e+09 
  312200 1.0223613e+09 1.0019745e+09 
  312300 1.0267704e+09 1.0064012e+09 
  312400 1.0270891e+09 1.0066111e+09 
  312500 1.0163913e+09 9.9595749e+08 
  312600 1.0281761e+09 1.0080498e+09 
  312700 1.0248143e+09 1.0043501e+09 
  312800 1.0301829e+09 1.0097436e+09 
  312900 1.0390016e+09 1.018225e+09 
  313000 1.0203626e+09 9.9937179e+08 
Loop time of 668.508 on 6 procs for 1000 steps with 31755 atoms

Pair  time (%) = 598.543 (89.5341)
Bond  time (%) = 0.771073 (0.115342)
Neigh time (%) = 5.09567 (0.762245)
Comm  time (%) = 29.9466 (4.47962)
Outpt time (%) = 2.10215 (0.314454)
Other time (%) = 32.0498 (4.79422)

Nlocal:    5292.5 ave 5427 max 5061 min
Histogram: 1 1 0 0 0 0 0 0 2 2
Nghost:    7743 ave 7876 max 7612 min
Histogram: 2 0 1 0 0 0 1 0 0 2
Neighs:    301989 ave 314981 max 281965 min
Histogram: 2 0 0 0 0 0 0 1 0 3
FullNghs: 603978 ave 629077 max 561818 min
Histogram: 2 0 0 0 0 0 0 1 0 3

Total # of neighbors = 3623868
Ave neighs/atom = 114.12
Ave special neighs/atom = 5.09986
Neighbor list builds = 100
Dangerous builds = 100
velocity all zero linear
WARNING: Use special bonds = 0,1,1 with bond style fene (bond_fene.cpp:189)
Memory usage per processor = 18.891 Mbytes
Step sdpd_kin pTemp 
  313000 1.020362e+09 9.9937179e+08 
  313100 1.0207625e+09 9.9978121e+08 
  313200 1.0185612e+09 9.9747661e+08 
  313300 1.0279406e+09 1.0069701e+09 
  313400 1.0223935e+09 1.0011448e+09 
  313500 1.0229871e+09 1.0014583e+09 
  313600 1.028006e+09 1.0068071e+09 
  313700 1.0282897e+09 1.0066309e+09 
  313800 1.0214964e+09 9.9986474e+08 
  313900 1.0241697e+09 1.003135e+09 
  314000 1.0358855e+09 1.0152432e+09 
Loop time of 665.274 on 6 procs for 1000 steps with 31755 atoms

Pair  time (%) = 599.944 (90.18)
Bond  time (%) = 0.770917 (0.11588)
Neigh time (%) = 5.10036 (0.766656)
Comm  time (%) = 25.6866 (3.86105)
Outpt time (%) = 2.10121 (0.315841)
Other time (%) = 31.6706 (4.76054)

Nlocal:    5292.5 ave 5409 max 5209 min
Histogram: 1 1 1 0 1 0 0 1 0 1
Nghost:    7757.83 ave 8045 max 7402 min
Histogram: 1 0 0 0 1 1 1 1 0 1
Neighs:    303236 ave 313208 max 294492 min
Histogram: 1 1 0 1 1 0 0 0 0 2
FullNghs: 606471 ave 626394 max 588491 min
Histogram: 1 1 1 0 1 0 0 0 0 2

Total # of neighbors = 3638826
Ave neighs/atom = 114.591
Ave special neighs/atom = 5.09986
Neighbor list builds = 100
Dangerous builds = 100
velocity all zero linear
WARNING: Use special bonds = 0,1,1 with bond style fene (bond_fene.cpp:189)
Memory usage per processor = 18.891 Mbytes
Step sdpd_kin pTemp 
  314000 1.0358842e+09 1.0152432e+09 
  314100 1.0297995e+09 1.0083037e+09 
  314200 1.0222641e+09 1.0005233e+09 
  314300 1.0269026e+09 1.0055813e+09 
  314400 1.0209901e+09 9.9956129e+08 
  314500 1.0259937e+09 1.0045874e+09 
  314600 1.0325367e+09 1.0107067e+09 
  314700 1.0248386e+09 1.0033139e+09 
  314800 1.0294264e+09 1.0080434e+09 
  314900 1.0214466e+09 1.0001685e+09 
  315000 1.0289234e+09 1.0073716e+09 
Loop time of 668.203 on 6 procs for 1000 steps with 31755 atoms

Pair  time (%) = 599.706 (89.7491)
Bond  time (%) = 0.774331 (0.115883)
Neigh time (%) = 5.12759 (0.767371)
Comm  time (%) = 28.1983 (4.22002)
Outpt time (%) = 2.09227 (0.313119)
Other time (%) = 32.3043 (4.83451)

Nlocal:    5292.5 ave 5441 max 5205 min
Histogram: 2 1 0 1 0 0 0 1 0 1
Nghost:    7817.83 ave 8014 max 7497 min
Histogram: 1 0 0 0 0 2 1 0 0 2
Neighs:    302563 ave 315491 max 295437 min
Histogram: 3 1 0 0 0 0 0 0 1 1
FullNghs: 605127 ave 630187 max 587551 min
Histogram: 1 2 1 0 0 0 0 0 0 2

Total # of neighbors = 3630760
Ave neighs/atom = 114.337
Ave special neighs/atom = 5.09986
Neighbor list builds = 100
Dangerous builds = 100
velocity all zero linear
WARNING: Use special bonds = 0,1,1 with bond style fene (bond_fene.cpp:189)
Memory usage per processor = 18.891 Mbytes
Step sdpd_kin pTemp 
  315000 1.0289224e+09 1.0073716e+09 
  315100 1.0210639e+09 1.0000499e+09 
  315200 1.0254774e+09 1.0042409e+09 
  315300 1.0298801e+09 1.0091044e+09 
  315400 1.032004e+09 1.0110073e+09 
  315500 1.0268517e+09 1.0059976e+09 
  315600 1.0362028e+09 1.0150198e+09 
  315700 1.024562e+09 1.0037165e+09 
  315800 1.0123685e+09 9.9195724e+08 
  315900 1.0299465e+09 1.009668e+09 
  316000 1.0229094e+09 1.002337e+09 
Loop time of 661.07 on 6 procs for 1000 steps with 31755 atoms

Pair  time (%) = 600.551 (90.8453)
Bond  time (%) = 0.784078 (0.118607)
Neigh time (%) = 5.14147 (0.77775)
Comm  time (%) = 18.6191 (2.81651)
Outpt time (%) = 2.0916 (0.316396)
Other time (%) = 33.8831 (5.12549)

Nlocal:    5292.5 ave 5407 max 5223 min
Histogram: 2 1 0 0 1 0 1 0 0 1
Nghost:    7757.33 ave 7863 max 7590 min
Histogram: 1 0 1 0 0 1 0 0 0 3
Neighs:    303004 ave 311591 max 295836 min
Histogram: 1 1 1 0 0 1 0 0 1 1
FullNghs: 606009 ave 623948 max 591452 min
Histogram: 1 1 1 0 0 1 0 0 1 1

Total # of neighbors = 3636054
Ave neighs/atom = 114.503
Ave special neighs/atom = 5.09986
Neighbor list builds = 100
Dangerous builds = 100
velocity all zero linear
WARNING: Use special bonds = 0,1,1 with bond style fene (bond_fene.cpp:189)
Memory usage per processor = 18.891 Mbytes
Step sdpd_kin pTemp 
  316000 1.0229089e+09 1.002337e+09 
  316100 1.0173243e+09 9.9705379e+08 
  316200 1.0300711e+09 1.0098962e+09 
  316300 1.0218518e+09 1.001527e+09 
  316400 1.0302487e+09 1.010337e+09 
  316500 1.0221216e+09 1.0017104e+09 
  316600 1.0247185e+09 1.0035925e+09 
  316700 1.0148949e+09 9.9361642e+08 
  316800 1.0177654e+09 9.9633791e+08 
  316900 1.0214336e+09 1.0000884e+09 
  317000 1.0200272e+09 9.9851078e+08 
Loop time of 658.704 on 6 procs for 1000 steps with 31755 atoms

Pair  time (%) = 600.336 (91.1389)
Bond  time (%) = 0.776948 (0.117951)
Neigh time (%) = 5.16194 (0.783651)
Comm  time (%) = 16.853 (2.55851)
Outpt time (%) = 2.07437 (0.314917)
Other time (%) = 33.5022 (5.08608)

Nlocal:    5292.5 ave 5358 max 5204 min
Histogram: 1 0 0 1 0 1 1 0 1 1
Nghost:    7791.33 ave 7902 max 7701 min
Histogram: 2 0 1 0 0 0 0 2 0 1
Neighs:    301862 ave 309098 max 294283 min
Histogram: 1 1 0 0 0 2 0 1 0 1
FullNghs: 603724 ave 617894 max 588042 min
Histogram: 1 1 0 0 0 1 1 1 0 1

Total # of neighbors = 3622344
Ave neighs/atom = 114.072
Ave special neighs/atom = 5.09986
Neighbor list builds = 100
Dangerous builds = 100
velocity all zero linear
WARNING: Use special bonds = 0,1,1 with bond style fene (bond_fene.cpp:189)
Memory usage per processor = 18.891 Mbytes
Step sdpd_kin pTemp 
  317000 1.020027e+09 9.9851078e+08 
  317100 1.0264153e+09 1.0046947e+09 
  317200 1.0248726e+09 1.0036193e+09 
  317300 1.0162572e+09 9.9471543e+08 
  317400 1.0206589e+09 9.9881856e+08 
  317500 1.0224387e+09 1.0009696e+09 
  317600 1.0235164e+09 1.0019529e+09 
  317700 1.025494e+09 1.0039515e+09 
  317800 1.0277179e+09 1.0060506e+09 
  317900 1.0255813e+09 1.0032147e+09 
  318000 1.0311834e+09 1.0091005e+09 
Loop time of 663.557 on 6 procs for 1000 steps with 31755 atoms

Pair  time (%) = 600.407 (90.4832)
Bond  time (%) = 0.771894 (0.116327)
Neigh time (%) = 5.12448 (0.772275)
Comm  time (%) = 22.477 (3.38736)
Outpt time (%) = 2.05635 (0.309898)
Other time (%) = 32.7197 (4.93095)

Nlocal:    5292.5 ave 5448 max 5049 min
Histogram: 1 0 0 0 0 2 0 1 1 1
Nghost:    7727.33 ave 7770 max 7699 min
Histogram: 2 0 1 0 1 0 1 0 0 1
Neighs:    303119 ave 317156 max 281831 min
Histogram: 1 0 0 0 1 1 0 1 1 1
FullNghs: 606239 ave 634962 max 562621 min
Histogram: 1 0 0 0 1 1 0 1 1 1

Total # of neighbors = 3637432
Ave neighs/atom = 114.547
Ave special neighs/atom = 5.09986
Neighbor list builds = 100
Dangerous builds = 100
velocity all zero linear
WARNING: Use special bonds = 0,1,1 with bond style fene (bond_fene.cpp:189)
Memory usage per processor = 18.891 Mbytes
Step sdpd_kin pTemp 
  318000 1.0311834e+09 1.0091005e+09 
  318100 1.0236755e+09 1.001153e+09 
  318200 1.0184752e+09 9.9647693e+08 
  318300 1.0278454e+09 1.0062436e+09 
  318400 1.0261772e+09 1.0045124e+09 
  318500 1.0294675e+09 1.0076382e+09 
  318600 1.0244651e+09 1.0027882e+09 
  318700 1.0204584e+09 9.9829661e+08 
  318800 1.0174405e+09 9.9492529e+08 
  318900 1.0177667e+09 9.9539706e+08 
  319000 1.0256265e+09 1.0030412e+09 
Loop time of 681.029 on 6 procs for 1000 steps with 31755 atoms

Pair  time (%) = 601.16 (88.2723)
Bond  time (%) = 0.767197 (0.112653)
Neigh time (%) = 5.10618 (0.749775)
Comm  time (%) = 39.0109 (5.72823)
Outpt time (%) = 2.0753 (0.30473)
Other time (%) = 32.9095 (4.83232)

Nlocal:    5292.5 ave 5479 max 5113 min
Histogram: 1 0 0 1 1 2 0 0 0 1
Nghost:    7750.83 ave 7852 max 7650 min
Histogram: 1 0 0 2 0 1 0 1 0 1
Neighs:    301722 ave 317590 max 283665 min
Histogram: 1 0 0 1 1 0 2 0 0 1
FullNghs: 603444 ave 636273 max 567212 min
Histogram: 1 0 0 1 1 0 2 0 0 1

Total # of neighbors = 3620664
Ave neighs/atom = 114.019
Ave special neighs/atom = 5.09986
Neighbor list builds = 100
Dangerous builds = 100
velocity all zero linear
WARNING: Use special bonds = 0,1,1 with bond style fene (bond_fene.cpp:189)
Memory usage per processor = 18.891 Mbytes
Step sdpd_kin pTemp 
  319000 1.0256265e+09 1.0030412e+09 
  319100 1.0204819e+09 9.9762531e+08 
  319200 1.0367305e+09 1.0133639e+09 
  319300 1.0263951e+09 1.0031242e+09 
  319400 1.0249401e+09 1.0019819e+09 
  319500 1.0232141e+09 1.0002741e+09 
  319600 1.0256869e+09 1.0021818e+09 
  319700 1.0187169e+09 9.9563732e+08 
  319800 1.023517e+09 1.0001031e+09 
  319900 1.0259953e+09 1.0029853e+09 
  320000 1.0289147e+09 1.0059368e+09 
Loop time of 676.362 on 6 procs for 1000 steps with 31755 atoms

Pair  time (%) = 601.97 (89.0012)
Bond  time (%) = 0.77994 (0.115314)
Neigh time (%) = 5.13298 (0.75891)
Comm  time (%) = 33.0393 (4.88485)
Outpt time (%) = 2.09548 (0.309816)
Other time (%) = 33.3443 (4.92995)

Nlocal:    5292.5 ave 5455 max 5018 min
Histogram: 1 0 0 1 0 1 0 0 1 2
Nghost:    7791.5 ave 8072 max 7682 min
Histogram: 2 1 2 0 0 0 0 0 0 1
Neighs:    302452 ave 317939 max 277671 min
Histogram: 1 0 0 2 0 0 0 0 0 3
FullNghs: 604903 ave 636102 max 557067 min
Histogram: 1 0 0 2 0 0 0 0 0 3

Total # of neighbors = 3629420
Ave neighs/atom = 114.294
Ave special neighs/atom = 5.09986
Neighbor list builds = 100
Dangerous builds = 99
velocity all zero linear
WARNING: Use special bonds = 0,1,1 with bond style fene (bond_fene.cpp:189)
Memory usage per processor = 18.1281 Mbytes
Step sdpd_kin pTemp 
  320000 1.0289146e+09 1.0059368e+09 
  320100 1.0280182e+09 1.0053394e+09 
  320200 1.0259251e+09 1.0035765e+09 
  320300 1.031281e+09 1.0086536e+09 
  320400 1.0256731e+09 1.0032328e+09 
  320500 1.0299312e+09 1.0075384e+09 
  320600 1.0251449e+09 1.0024592e+09 
  320700 1.0237021e+09 1.0016226e+09 
  320800 1.0255321e+09 1.0035111e+09 
  320900 1.0247744e+09 1.0027844e+09 
  321000 1.007017e+09 9.8496554e+08 
Loop time of 691.678 on 6 procs for 1000 steps with 31755 atoms

Pair  time (%) = 600.391 (86.8021)
Bond  time (%) = 0.767648 (0.110984)
Neigh time (%) = 5.12036 (0.740281)
Comm  time (%) = 47.7284 (6.90039)
Outpt time (%) = 2.09373 (0.302703)
Other time (%) = 35.5768 (5.14355)

Nlocal:    5292.5 ave 5470 max 5058 min
Histogram: 1 0 0 1 0 1 1 1 0 1
Nghost:    7892 ave 8032 max 7697 min
Histogram: 1 0 0 1 0 0 1 2 0 1
Neighs:    302077 ave 318667 max 279147 min
Histogram: 1 0 1 0 0 0 1 1 1 1
FullNghs: 604154 ave 636786 max 559011 min
Histogram: 1 0 1 0 0 0 1 1 1 1

Total # of neighbors = 3624922
Ave neighs/atom = 114.153
Ave special neighs/atom = 5.09986
Neighbor list builds = 100
Dangerous builds = 100
velocity all zero linear
WARNING: Use special bonds = 0,1,1 with bond style fene (bond_fene.cpp:189)
Memory usage per processor = 18.891 Mbytes
Step sdpd_kin pTemp 
  321000 1.007017e+09 9.8496554e+08 
  321100 1.0219789e+09 1.0001121e+09 
  321200 1.0227981e+09 1.0008165e+09 
  321300 1.0284072e+09 1.0062073e+09 
  321400 1.0232164e+09 1.0013522e+09 
  321500 1.0246064e+09 1.0023218e+09 
  321600 1.0277591e+09 1.0058238e+09 
  321700 1.0240141e+09 1.0019594e+09 
  321800 1.0231074e+09 1.000394e+09 
  321900 1.0223837e+09 1.0005313e+09 
  322000 1.0214153e+09 9.998659e+08 
Loop time of 672.18 on 6 procs for 1000 steps with 31755 atoms

Pair  time (%) = 599.63 (89.2067)
Bond  time (%) = 0.779396 (0.11595)
Neigh time (%) = 5.12381 (0.762268)
Comm  time (%) = 31.7109 (4.71762)
Outpt time (%) = 2.07687 (0.308976)
Other time (%) = 32.8591 (4.88844)

Nlocal:    5292.5 ave 5385 max 5056 min
Histogram: 1 0 0 0 0 1 0 0 1 3
Nghost:    7827.83 ave 8082 max 7630 min
Histogram: 1 0 1 1 1 1 0 0 0 1
Neighs:    302634 ave 316100 max 276473 min
Histogram: 1 0 0 0 1 0 0 1 1 2
FullNghs: 605268 ave 631310 max 555789 min
Histogram: 1 0 0 1 0 0 0 1 1 2

Total # of neighbors = 3631610
Ave neighs/atom = 114.363
Ave special neighs/atom = 5.09986
Neighbor list builds = 100
Dangerous builds = 100
velocity all zero linear
WARNING: Use special bonds = 0,1,1 with bond style fene (bond_fene.cpp:189)
Memory usage per processor = 18.891 Mbytes
Step sdpd_kin pTemp 
  322000 1.021415e+09 9.998659e+08 
  322100 1.0268353e+09 1.005546e+09 
  322200 1.0258854e+09 1.0048911e+09 
  322300 1.0179203e+09 9.9690439e+08 
  322400 1.0246352e+09 1.0031397e+09 
  322500 1.0216464e+09 1.0005269e+09 
  322600 1.0206333e+09 9.9940974e+08 
  322700 1.0265173e+09 1.0050715e+09 
  322800 1.0338181e+09 1.0125001e+09 
  322900 1.0243981e+09 1.0028939e+09 
  323000 1.0243564e+09 1.0033268e+09 
Loop time of 671 on 6 procs for 1000 steps with 31755 atoms

Pair  time (%) = 599.368 (89.3247)
Bond  time (%) = 0.77281 (0.115173)
Neigh time (%) = 5.11221 (0.76188)
Comm  time (%) = 31.1507 (4.64244)
Outpt time (%) = 2.06852 (0.308275)
Other time (%) = 32.5271 (4.84756)

Nlocal:    5292.5 ave 5408 max 5129 min
Histogram: 1 0 0 1 0 1 1 0 0 2
Nghost:    7882.5 ave 8015 max 7745 min
Histogram: 1 1 0 0 0 0 3 0 0 1
Neighs:    301036 ave 312935 max 284095 min
Histogram: 1 0 0 1 1 0 0 1 1 1
FullNghs: 602072 ave 625643 max 567164 min
Histogram: 1 0 0 1 0 1 0 0 2 1

Total # of neighbors = 3612432
Ave neighs/atom = 113.759
Ave special neighs/atom = 5.09986
Neighbor list builds = 100
Dangerous builds = 100
velocity all zero linear
WARNING: Use special bonds = 0,1,1 with bond style fene (bond_fene.cpp:189)
Memory usage per processor = 18.891 Mbytes
Step sdpd_kin pTemp 
  323000 1.0243556e+09 1.0033268e+09 
  323100 1.0189307e+09 9.9815301e+08 
  323200 1.0179654e+09 9.9681879e+08 
  323300 1.0181322e+09 9.9761739e+08 
  323400 1.0187269e+09 9.9840541e+08 
  323500 1.0287163e+09 1.0082124e+09 
  323600 1.0220247e+09 1.0012531e+09 
  323700 1.0208026e+09 1.0001853e+09 
  323800 1.0190366e+09 9.986407e+08 
  323900 1.0247011e+09 1.0043484e+09 
  324000 1.0277628e+09 1.0070751e+09 
Loop time of 675.308 on 6 procs for 1000 steps with 31755 atoms

Pair  time (%) = 600.298 (88.8925)
Bond  time (%) = 0.76377 (0.1131)
Neigh time (%) = 5.10402 (0.755806)
Comm  time (%) = 33.926 (5.02378)
Outpt time (%) = 2.06747 (0.306152)
Other time (%) = 33.1488 (4.9087)

Nlocal:    5292.5 ave 5500 max 5199 min
Histogram: 3 0 1 0 1 0 0 0 0 1
Nghost:    7694.33 ave 7787 max 7609 min
Histogram: 1 1 0 0 1 1 0 1 0 1
Neighs:    302632 ave 321057 max 292212 min
Histogram: 2 1 1 0 0 0 1 0 0 1
FullNghs: 605265 ave 643598 max 583149 min
Histogram: 2 1 0 1 0 0 1 0 0 1

Total # of neighbors = 3631590
Ave neighs/atom = 114.363
Ave special neighs/atom = 5.09986
Neighbor list builds = 100
Dangerous builds = 100
velocity all zero linear
WARNING: Use special bonds = 0,1,1 with bond style fene (bond_fene.cpp:189)
Memory usage per processor = 18.891 Mbytes
Step sdpd_kin pTemp 
  324000 1.0277616e+09 1.0070751e+09 
  324100  1.02518e+09 1.0043763e+09 
  324200 1.0235566e+09 1.0023891e+09 
  324300 1.0252223e+09 1.0041971e+09 
  324400 1.0260453e+09 1.0049318e+09 
  324500 1.0268725e+09 1.0059612e+09 
  324600 1.0254552e+09 1.0048469e+09 
  324700 1.0256029e+09 1.0054196e+09 
  324800 1.030097e+09 1.0102975e+09 
  324900 1.0197506e+09 1.0000755e+09 
  325000 1.0285551e+09 1.0092532e+09 
Loop time of 685.098 on 6 procs for 1000 steps with 31755 atoms

Pair  time (%) = 600.866 (87.7051)
Bond  time (%) = 0.778042 (0.113567)
Neigh time (%) = 5.10834 (0.745636)
Comm  time (%) = 42.0411 (6.13651)
Outpt time (%) = 2.07776 (0.303279)
Other time (%) = 34.2271 (4.99594)

Nlocal:    5292.5 ave 5461 max 5140 min
Histogram: 1 1 0 1 1 0 0 1 0 1
Nghost:    7842.83 ave 8009 max 7594 min
Histogram: 1 0 0 0 0 2 1 1 0 1
Neighs:    301935 ave 319921 max 290741 min
Histogram: 2 0 2 0 0 0 0 1 0 1
FullNghs: 603870 ave 639860 max 582375 min
Histogram: 2 1 1 0 0 0 0 1 0 1

Total # of neighbors = 3623222
Ave neighs/atom = 114.099
Ave special neighs/atom = 5.09986
Neighbor list builds = 100
Dangerous builds = 100
velocity all zero linear
WARNING: Use special bonds = 0,1,1 with bond style fene (bond_fene.cpp:189)
Memory usage per processor = 18.891 Mbytes
Step sdpd_kin pTemp 
  325000 1.0285535e+09 1.0092532e+09 
  325100 1.0205713e+09 1.0016819e+09 
  325200 1.0296426e+09 1.0106961e+09 
  325300 1.0271045e+09 1.0078217e+09 
  325400 1.0107893e+09 9.9147309e+08 
  325500 1.0218296e+09 1.0027939e+09 
  325600 1.025756e+09 1.0066031e+09 
  325700 1.0223622e+09 1.0032335e+09 
  325800 1.0219156e+09 1.0030904e+09 
  325900 1.0242878e+09 1.0047083e+09 
  326000 1.0216366e+09 1.0022726e+09 
Loop time of 684.344 on 6 procs for 1000 steps with 31755 atoms

Pair  time (%) = 600.336 (87.7243)
Bond  time (%) = 0.771557 (0.112744)
Neigh time (%) = 5.11566 (0.747528)
Comm  time (%) = 42.3793 (6.1927)
Outpt time (%) = 2.06376 (0.301568)
Other time (%) = 33.6777 (4.92117)

Nlocal:    5292.5 ave 5491 max 5167 min
Histogram: 2 2 0 0 0 0 0 0 1 1
Nghost:    7716.5 ave 7865 max 7547 min
Histogram: 2 0 0 0 0 1 0 2 0 1
Neighs:    301978 ave 325684 max 289471 min
Histogram: 2 1 1 0 0 0 0 1 0 1
FullNghs: 603956 ave 651709 max 578600 min
Histogram: 2 1 1 0 0 0 0 1 0 1

Total # of neighbors = 3623734
Ave neighs/atom = 114.115
Ave special neighs/atom = 5.09986
Neighbor list builds = 100
Dangerous builds = 100
velocity all zero linear
WARNING: Use special bonds = 0,1,1 with bond style fene (bond_fene.cpp:189)
Memory usage per processor = 18.891 Mbytes
Step sdpd_kin pTemp 
  326000 1.0216347e+09 1.0022726e+09 
  326100 1.0244774e+09 1.0052467e+09 
  326200 1.0324446e+09 1.0128232e+09 
  326300 1.0229477e+09 1.0033266e+09 
  326400 1.0202302e+09 1.0005656e+09 
  326500 1.0260975e+09 1.0066017e+09 
  326600 1.015024e+09 9.9521739e+08 
  326700 1.0238532e+09 1.0043518e+09 
  326800 1.0203466e+09 1.000908e+09 
  326900 1.0243351e+09 1.0051563e+09 
  327000 1.0137723e+09 9.9489684e+08 
Loop time of 694.699 on 6 procs for 1000 steps with 31755 atoms

Pair  time (%) = 599.759 (86.3337)
Bond  time (%) = 0.764393 (0.110032)
Neigh time (%) = 5.11474 (0.736253)
Comm  time (%) = 51.8457 (7.46304)
Outpt time (%) = 2.10093 (0.302423)
Other time (%) = 35.1139 (5.05454)

Nlocal:    5292.5 ave 5469 max 5131 min
Histogram: 1 1 1 0 1 0 0 0 0 2
Nghost:    7699.5 ave 7983 max 7381 min
Histogram: 1 0 0 0 1 2 1 0 0 1
Neighs:    300959 ave 320212 max 284171 min
Histogram: 1 0 2 0 1 0 0 0 1 1
FullNghs: 601919 ave 640514 max 566474 min
Histogram: 1 0 1 1 1 0 0 0 0 2

Total # of neighbors = 3611512
Ave neighs/atom = 113.73
Ave special neighs/atom = 5.09986
Neighbor list builds = 100
Dangerous builds = 100
velocity all zero linear
WARNING: Use special bonds = 0,1,1 with bond style fene (bond_fene.cpp:189)
Memory usage per processor = 18.891 Mbytes
Step sdpd_kin pTemp 
  327000 1.0137703e+09 9.9489684e+08 
  327100 1.0262943e+09 1.0072577e+09 
  327200 1.0210354e+09 1.002594e+09 
  327300 1.0204313e+09 1.0011109e+09 
  327400 1.0295669e+09 1.0104984e+09 
  327500 1.020077e+09 1.0006557e+09 
  327600 1.0218798e+09 1.0022434e+09 
  327700 1.0221357e+09 1.0021671e+09 
  327800 1.0219209e+09 1.0021707e+09 
  327900 1.0242834e+09 1.0039886e+09 
  328000 1.0267739e+09 1.0067902e+09 
Loop time of 686.312 on 6 procs for 1000 steps with 31755 atoms

Pair  time (%) = 596.874 (86.9683)
Bond  time (%) = 0.768137 (0.111922)
Neigh time (%) = 5.11489 (0.745272)
Comm  time (%) = 47.4337 (6.91139)
Outpt time (%) = 2.08441 (0.303711)
Other time (%) = 34.0369 (4.95939)

Nlocal:    5292.5 ave 5489 max 5114 min
Histogram: 1 1 0 0 1 1 1 0 0 1
Nghost:    7733.67 ave 8044 max 7276 min
Histogram: 1 0 0 1 0 0 2 0 1 1
Neighs:    301203 ave 325993 max 284723 min
Histogram: 1 1 0 2 0 1 0 0 0 1
FullNghs: 602405 ave 651312 max 568296 min
Histogram: 1 1 0 2 0 1 0 0 0 1

Total # of neighbors = 3614432
Ave neighs/atom = 113.822
Ave special neighs/atom = 5.09986
Neighbor list builds = 100
Dangerous builds = 100
velocity all zero linear
WARNING: Use special bonds = 0,1,1 with bond style fene (bond_fene.cpp:189)
Memory usage per processor = 18.891 Mbytes
Step sdpd_kin pTemp 
  328000 1.0267725e+09 1.0067902e+09 
  328100 1.0181142e+09 9.9822382e+08 
  328200 1.0305741e+09 1.010869e+09 
  328300 1.0235253e+09 1.0029155e+09 
  328400 1.0189489e+09 9.978315e+08 
  328500 1.0305635e+09 1.0093052e+09 
  328600 1.0264096e+09 1.0049952e+09 
  328700 1.0241728e+09 1.0031998e+09 
  328800 1.0219605e+09 1.0008106e+09 
  328900 1.0323971e+09 1.0115872e+09 
  329000 1.0281101e+09 1.0065806e+09 
Loop time of 694.281 on 6 procs for 1000 steps with 31755 atoms

Pair  time (%) = 596.877 (85.9704)
Bond  time (%) = 0.76693 (0.110464)
Neigh time (%) = 5.10967 (0.735965)
Comm  time (%) = 56.4125 (8.1253)
Outpt time (%) = 2.08126 (0.299772)
Other time (%) = 33.0345 (4.75808)

Nlocal:    5292.5 ave 5614 max 5101 min
Histogram: 2 1 0 0 1 1 0 0 0 1
Nghost:    7842.17 ave 8094 max 7509 min
Histogram: 1 0 0 0 2 1 0 0 0 2
Neighs:    300786 ave 332485 max 282121 min
Histogram: 2 0 1 0 2 0 0 0 0 1
FullNghs: 601572 ave 664510 max 564936 min
Histogram: 2 0 1 0 2 0 0 0 0 1

Total # of neighbors = 3609434
Ave neighs/atom = 113.665
Ave special neighs/atom = 5.09986
Neighbor list builds = 100
Dangerous builds = 100
velocity all zero linear
WARNING: Use special bonds = 0,1,1 with bond style fene (bond_fene.cpp:189)
Memory usage per processor = 18.1281 Mbytes
Step sdpd_kin pTemp 
  329000 1.0281096e+09 1.0065806e+09 
  329100 1.0195229e+09 9.9796993e+08 
  329200 1.0198305e+09 9.9842605e+08 
  329300 1.0262511e+09 1.0054795e+09 
  329400 1.0278254e+09 1.006673e+09 
  329500 1.0250572e+09 1.0038967e+09 
  329600 1.0240738e+09 1.0023905e+09 
  329700 1.0143903e+09 9.9300066e+08 
  329800 1.0264614e+09 1.0047938e+09 
  329900 1.032096e+09 1.0109017e+09 
  330000 1.0225281e+09 1.0006869e+09 
Loop time of 683.898 on 6 procs for 1000 steps with 31755 atoms

Pair  time (%) = 598.014 (87.442)
Bond  time (%) = 0.773012 (0.11303)
Neigh time (%) = 5.12346 (0.749156)
Comm  time (%) = 44.3441 (6.48403)
Outpt time (%) = 2.08971 (0.305559)
Other time (%) = 33.5538 (4.90626)

Nlocal:    5292.5 ave 5419 max 5180 min
Histogram: 1 0 2 0 0 1 0 1 0 1
Nghost:    7726.33 ave 7919 max 7542 min
Histogram: 1 1 0 0 0 1 2 0 0 1
Neighs:    301255 ave 313658 max 287990 min
Histogram: 1 0 1 1 0 0 1 0 1 1
FullNghs: 602511 ave 626388 max 577805 min
Histogram: 1 0 1 1 0 0 1 1 0 1

Total # of neighbors = 3615064
Ave neighs/atom = 113.842
Ave special neighs/atom = 5.09986
Neighbor list builds = 100
Dangerous builds = 99
velocity all zero linear
WARNING: Use special bonds = 0,1,1 with bond style fene (bond_fene.cpp:189)
Memory usage per processor = 18.891 Mbytes
Step sdpd_kin pTemp 
  330000 1.0225275e+09 1.0006869e+09 
  330100 1.0319989e+09 1.010217e+09 
  330200 1.0262814e+09 1.0041229e+09 
  330300 1.0247669e+09 1.0028002e+09 
  330400 1.0353798e+09   1.0132e+09 
  330500 1.0225697e+09 1.0006122e+09 
  330600 1.0170865e+09 9.9508866e+08 
  330700 1.0191975e+09 9.9681652e+08 
  330800 1.0275571e+09 1.0050098e+09 
  330900 1.0241836e+09 1.001926e+09 
  331000 1.0269291e+09 1.0046313e+09 
Loop time of 675.144 on 6 procs for 1000 steps with 31755 atoms

Pair  time (%) = 599.121 (88.7397)
Bond  time (%) = 0.770752 (0.114161)
Neigh time (%) = 5.11033 (0.756924)
Comm  time (%) = 34.8613 (5.16354)
Outpt time (%) = 2.07886 (0.307914)
Other time (%) = 33.2018 (4.91774)

Nlocal:    5292.5 ave 5458 max 5203 min
Histogram: 3 0 0 0 2 0 0 0 0 1
Nghost:    7671.83 ave 7980 max 7432 min
Histogram: 1 0 1 1 1 1 0 0 0 1
Neighs:    301696 ave 318881 max 290583 min
Histogram: 2 0 0 1 1 1 0 0 0 1
FullNghs: 603392 ave 638419 max 580227 min
Histogram: 2 0 1 0 0 2 0 0 0 1

Total # of neighbors = 3620354
Ave neighs/atom = 114.009
Ave special neighs/atom = 5.09986
Neighbor list builds = 100
Dangerous builds = 100
velocity all zero linear
WARNING: Use special bonds = 0,1,1 with bond style fene (bond_fene.cpp:189)
Memory usage per processor = 18.1281 Mbytes
Step sdpd_kin pTemp 
  331000 1.0269286e+09 1.0046313e+09 
  331100 1.0196233e+09 9.9725297e+08 
  331200 1.0258655e+09 1.0032385e+09 
  331300 1.0308432e+09 1.0079746e+09 
  331400 1.0230419e+09 9.997908e+08 
  331500 1.0276579e+09 1.0047239e+09 
  331600 1.0251738e+09 1.0025266e+09 
  331700 1.0328386e+09 1.0106383e+09 
  331800 1.0147164e+09 9.9259872e+08 
  331900 1.0259225e+09 1.0032625e+09 
  332000 1.0271287e+09 1.0043579e+09 
Loop time of 682.789 on 6 procs for 1000 steps with 31755 atoms

Pair  time (%) = 600.783 (87.9896)
Bond  time (%) = 0.76604 (0.112193)
Neigh time (%) = 5.12781 (0.75101)
Comm  time (%) = 40.5339 (5.93652)
Outpt time (%) = 2.08533 (0.305413)
Other time (%) = 33.4929 (4.9053)

Nlocal:    5292.5 ave 5449 max 5178 min
Histogram: 2 0 0 1 0 1 1 0 0 1
Nghost:    7771.33 ave 7876 max 7671 min
Histogram: 2 0 0 1 0 0 0 1 1 1
Neighs:    302610 ave 318926 max 289021 min
Histogram: 1 1 0 1 0 1 0 1 0 1
FullNghs: 605219 ave 636122 max 580169 min
Histogram: 1 1 0 1 0 1 1 0 0 1

Total # of neighbors = 3631316
Ave neighs/atom = 114.354
Ave special neighs/atom = 5.09986
Neighbor list builds = 100
Dangerous builds = 100
velocity all zero linear
WARNING: Use special bonds = 0,1,1 with bond style fene (bond_fene.cpp:189)
Memory usage per processor = 18.1281 Mbytes
Step sdpd_kin pTemp 
  332000 1.0271284e+09 1.0043579e+09 
  332100 1.0224873e+09 9.9977088e+08 
  332200 1.0277185e+09 1.0049398e+09 
  332300 1.0192989e+09 9.9684598e+08 
  332400 1.0236886e+09 1.0008423e+09 
  332500 1.0259991e+09 1.0031425e+09 
  332600 1.0228015e+09 9.9975973e+08 
  332700 1.0254718e+09 1.0026902e+09 
  332800 1.0289101e+09 1.0065732e+09 
  332900 1.0293022e+09 1.0064594e+09 
  333000 1.0247597e+09 1.0022331e+09 
Loop time of 675.604 on 6 procs for 1000 steps with 31755 atoms

Pair  time (%) = 600.14 (88.8301)
Bond  time (%) = 0.76641 (0.113441)
Neigh time (%) = 5.10203 (0.75518)
Comm  time (%) = 35.6872 (5.28227)
Outpt time (%) = 2.09302 (0.309799)
Other time (%) = 31.8154 (4.70918)

Nlocal:    5292.5 ave 5453 max 5195 min
Histogram: 1 1 1 0 2 0 0 0 0 1
Nghost:    7743.83 ave 7877 max 7426 min
Histogram: 1 0 0 0 0 0 1 1 1 2
Neighs:    301983 ave 315377 max 292983 min
Histogram: 2 0 1 0 0 2 0 0 0 1
FullNghs: 603966 ave 631708 max 584963 min
Histogram: 2 0 1 0 0 2 0 0 0 1

Total # of neighbors = 3623794
Ave neighs/atom = 114.117
Ave special neighs/atom = 5.09986
Neighbor list builds = 100
Dangerous builds = 100
velocity all zero linear
WARNING: Use special bonds = 0,1,1 with bond style fene (bond_fene.cpp:189)
Memory usage per processor = 18.1281 Mbytes
Step sdpd_kin pTemp 
  333000 1.0247593e+09 1.0022331e+09 
  333100 1.0275841e+09 1.0049993e+09 
  333200 1.0179363e+09 9.9501923e+08 
  333300 1.0249415e+09 1.002516e+09 
  333400 1.0202161e+09 9.9749595e+08 
  333500 1.023076e+09 1.0001982e+09 
  333600 1.0265412e+09 1.0035258e+09 
  333700 1.0258573e+09  1.00313e+09 
  333800 1.0228124e+09 1.000037e+09 
  333900 1.0171281e+09 9.9479441e+08 
  334000 1.0154523e+09 9.9297793e+08 
Loop time of 677.999 on 6 procs for 1000 steps with 31755 atoms

Pair  time (%) = 600.831 (88.6183)
Bond  time (%) = 0.765201 (0.112862)
Neigh time (%) = 5.1094 (0.753599)
Comm  time (%) = 36.4045 (5.36941)
Outpt time (%) = 2.09372 (0.308808)
Other time (%) = 32.7952 (4.83705)

Nlocal:    5292.5 ave 5394 max 5149 min
Histogram: 1 0 0 0 1 0 1 2 0 1
Nghost:    7696.33 ave 7806 max 7573 min
Histogram: 1 0 0 2 0 0 1 1 0 1
Neighs:    302216 ave 313442 max 286489 min
Histogram: 1 0 0 1 0 0 2 0 1 1
FullNghs: 604432 ave 628374 max 573672 min
Histogram: 1 0 0 1 0 1 1 0 1 1

Total # of neighbors = 3626592
Ave neighs/atom = 114.205
Ave special neighs/atom = 5.09986
Neighbor list builds = 100
Dangerous builds = 100
velocity all zero linear
WARNING: Use special bonds = 0,1,1 with bond style fene (bond_fene.cpp:189)
Memory usage per processor = 18.1281 Mbytes
Step sdpd_kin pTemp 
  334000 1.0154519e+09 9.9297793e+08 
  334100 1.0284737e+09 1.0062813e+09 
  334200 1.0266118e+09 1.0043557e+09 
  334300 1.0282325e+09 1.0056654e+09 
  334400 1.0248987e+09 1.0025892e+09 
  334500 1.0274396e+09 1.0049579e+09 
  334600 1.0335674e+09 1.011176e+09 
  334700 1.0319163e+09 1.0099699e+09 
  334800 1.0300586e+09 1.0080667e+09 
  334900 1.0205666e+09 9.9863605e+08 
  335000 1.0320926e+09 1.010611e+09 
Loop time of 664.599 on 6 procs for 1000 steps with 31755 atoms

Pair  time (%) = 598.083 (89.9917)
Bond  time (%) = 0.773411 (0.116373)
Neigh time (%) = 5.12902 (0.771747)
Comm  time (%) = 25.7601 (3.87603)
Outpt time (%) = 2.08493 (0.313713)
Other time (%) = 32.7678 (4.93046)

Nlocal:    5292.5 ave 5452 max 5189 min
Histogram: 1 1 0 2 0 1 0 0 0 1
Nghost:    7779.83 ave 7875 max 7687 min
Histogram: 2 0 1 0 0 0 0 1 0 2
Neighs:    301992 ave 318424 max 289959 min
Histogram: 1 1 0 1 1 1 0 0 0 1
FullNghs: 603984 ave 637445 max 579320 min
Histogram: 1 1 0 1 1 1 0 0 0 1

Total # of neighbors = 3623906
Ave neighs/atom = 114.121
Ave special neighs/atom = 5.09986
Neighbor list builds = 100
Dangerous builds = 100
velocity all zero linear
WARNING: Use special bonds = 0,1,1 with bond style fene (bond_fene.cpp:189)
Memory usage per processor = 18.891 Mbytes
Step sdpd_kin pTemp 
  335000 1.0320924e+09 1.010611e+09 
  335100 1.0228246e+09 1.0010745e+09 
  335200 1.0256081e+09 1.0035708e+09 
  335300 1.0277465e+09 1.0053737e+09 
  335400 1.026012e+09 1.0037619e+09 
  335500 1.0191621e+09 9.9698094e+08 
  335600 1.0281535e+09 1.0068225e+09 
  335700 1.021429e+09 9.9957031e+08 
  335800 1.0313293e+09 1.0097498e+09 
  335900 1.0226672e+09 1.0011488e+09 
  336000 1.0116401e+09 9.898975e+08 
Loop time of 659.897 on 6 procs for 1000 steps with 31755 atoms

Pair  time (%) = 598.247 (90.6578)
Bond  time (%) = 0.780847 (0.118329)
Neigh time (%) = 5.15134 (0.780629)
Comm  time (%) = 21.7853 (3.30132)
Outpt time (%) = 2.09819 (0.317957)
Other time (%) = 31.8334 (4.824)

Nlocal:    5292.5 ave 5354 max 5216 min
Histogram: 1 0 1 0 0 1 0 1 1 1
Nghost:    7751.67 ave 8082 max 7507 min
Histogram: 1 0 2 1 0 0 0 1 0 1
Neighs:    301892 ave 305083 max 292572 min
Histogram: 1 0 0 0 0 0 0 1 2 2
FullNghs: 603784 ave 612271 max 587111 min
Histogram: 1 0 0 0 0 1 1 1 1 1

Total # of neighbors = 3622702
Ave neighs/atom = 114.083
Ave special neighs/atom = 5.09986
Neighbor list builds = 100
Dangerous builds = 100
velocity all zero linear
WARNING: Use special bonds = 0,1,1 with bond style fene (bond_fene.cpp:189)
Memory usage per processor = 18.891 Mbytes
Step sdpd_kin pTemp 
  336000 1.0116401e+09 9.898975e+08 
  336100 1.0225185e+09 9.9994654e+08 
  336200 1.0271425e+09 1.0046411e+09 
  336300 1.0268181e+09 1.0036609e+09 
  336400 1.0321862e+09 1.0091796e+09 
  336500 1.0277598e+09 1.003977e+09 
  336600 1.0223106e+09 9.9908436e+08 
  336700 1.0216372e+09 9.9803071e+08 
  336800 1.0252732e+09 1.0013299e+09 
  336900 1.0248462e+09 1.0009154e+09 
  337000 1.0265763e+09 1.0026984e+09 
Loop time of 657.921 on 6 procs for 1000 steps with 31755 atoms

Pair  time (%) = 601.14 (91.3696)
Bond  time (%) = 0.781395 (0.118767)
Neigh time (%) = 5.14949 (0.782691)
Comm  time (%) = 16.418 (2.49544)
Outpt time (%) = 2.10339 (0.319702)
Other time (%) = 32.3291 (4.91383)

Nlocal:    5292.5 ave 5398 max 5130 min
Histogram: 1 0 1 0 0 1 0 0 2 1
Nghost:    7706.67 ave 7917 max 7541 min
Histogram: 1 1 0 1 1 0 1 0 0 1
Neighs:    303618 ave 313596 max 290482 min
Histogram: 1 1 0 0 0 1 0 0 2 1
FullNghs: 607236 ave 626981 max 581535 min
Histogram: 1 1 0 0 1 0 0 0 1 2

Total # of neighbors = 3643414
Ave neighs/atom = 114.735
Ave special neighs/atom = 5.09986
Neighbor list builds = 100
Dangerous builds = 100
velocity all zero linear
WARNING: Use special bonds = 0,1,1 with bond style fene (bond_fene.cpp:189)
Memory usage per processor = 18.891 Mbytes
Step sdpd_kin pTemp 
  337000 1.0265763e+09 1.0026984e+09 
  337100 1.0293086e+09 1.0053688e+09 
  337200 1.0231493e+09 9.9968186e+08 
  337300 1.0247762e+09 1.0008812e+09 
  337400 1.0264034e+09 1.0024659e+09 
  337500 1.0268726e+09 1.0034949e+09 
  337600 1.0254581e+09 1.0018751e+09 
  337700 1.0237967e+09 1.0001911e+09 
  337800 1.0196795e+09 9.9644128e+08 
  337900 1.0312224e+09 1.0082082e+09 
  338000 1.0257079e+09 1.0030763e+09 
Loop time of 662.139 on 6 procs for 1000 steps with 31755 atoms

Pair  time (%) = 602.357 (90.9714)
Bond  time (%) = 0.770769 (0.116406)
Neigh time (%) = 5.12942 (0.774674)
Comm  time (%) = 18.8571 (2.84791)
Outpt time (%) = 2.08898 (0.315489)
Other time (%) = 32.9358 (4.97415)

Nlocal:    5292.5 ave 5377 max 5197 min
Histogram: 1 0 0 1 0 2 0 1 0 1
Nghost:    7670.33 ave 7855 max 7534 min
Histogram: 2 0 0 1 0 1 1 0 0 1
Neighs:    303217 ave 309574 max 294600 min
Histogram: 1 1 0 0 0 0 1 1 0 2
FullNghs: 606434 ave 617935 max 589564 min
Histogram: 1 1 0 0 0 1 0 0 1 2

Total # of neighbors = 3638606
Ave neighs/atom = 114.584
Ave special neighs/atom = 5.09986
Neighbor list builds = 100
Dangerous builds = 100
velocity all zero linear
WARNING: Use special bonds = 0,1,1 with bond style fene (bond_fene.cpp:189)
Memory usage per processor = 18.891 Mbytes
Step sdpd_kin pTemp 
  338000 1.0257077e+09 1.0030763e+09 
  338100 1.0306076e+09 1.0080836e+09 
  338200 1.0230679e+09 1.0003152e+09 
  338300 1.0204615e+09 9.969777e+08 
  338400 1.0164304e+09 9.9352512e+08 
  338500 1.0284695e+09 1.0055225e+09 
  338600 1.0223458e+09 9.9950025e+08 
  338700 1.0228527e+09 9.9992958e+08 
  338800 1.0195778e+09 9.9708859e+08 
  338900 1.0246957e+09 1.0018168e+09 
  339000 1.0301113e+09 1.0074352e+09 
Loop time of 657.517 on 6 procs for 1000 steps with 31755 atoms

Pair  time (%) = 598.497 (91.0237)
Bond  time (%) = 0.776117 (0.118038)
Neigh time (%) = 5.13769 (0.781378)
Comm  time (%) = 18.2785 (2.77992)
Outpt time (%) = 2.09406 (0.31848)
Other time (%) = 32.7341 (4.97843)

Nlocal:    5292.5 ave 5354 max 5223 min
Histogram: 2 0 0 0 0 1 1 0 0 2
Nghost:    7680.33 ave 7838 max 7473 min
Histogram: 2 0 0 0 0 0 1 1 0 2
Neighs:    301596 ave 306595 max 294344 min
Histogram: 1 1 0 0 0 1 0 0 1 2
FullNghs: 603192 ave 614365 max 589053 min
Histogram: 1 1 0 0 0 1 0 1 0 2

Total # of neighbors = 3619154
Ave neighs/atom = 113.971
Ave special neighs/atom = 5.09986
Neighbor list builds = 100
Dangerous builds = 100
velocity all zero linear
WARNING: Use special bonds = 0,1,1 with bond style fene (bond_fene.cpp:189)
Memory usage per processor = 18.891 Mbytes
Step sdpd_kin pTemp 
  339000 1.030111e+09 1.0074352e+09 
  339100 1.0308119e+09  1.00794e+09 
  339200 1.0278162e+09 1.005235e+09 
  339300 1.0316554e+09 1.0083759e+09 
  339400 1.0314013e+09 1.0075959e+09 
  339500 1.0227399e+09 9.9929052e+08 
  339600 1.0314107e+09 1.0082518e+09 
  339700 1.0213062e+09 9.985235e+08 
  339800 1.0322768e+09 1.0104321e+09 
  339900 1.0311951e+09 1.0090128e+09 
  340000 1.0251414e+09 1.0026602e+09 
Loop time of 663.058 on 6 procs for 1000 steps with 31755 atoms

Pair  time (%) = 598.106 (90.2043)
Bond  time (%) = 0.777506 (0.117261)
Neigh time (%) = 5.13579 (0.774561)
Comm  time (%) = 24.3333 (3.66986)
Outpt time (%) = 2.12218 (0.32006)
Other time (%) = 32.5827 (4.91401)

Nlocal:    5292.5 ave 5418 max 5126 min
Histogram: 1 0 0 0 0 3 0 1 0 1
Nghost:    7632.33 ave 7763 max 7432 min
Histogram: 1 0 0 0 0 1 2 1 0 1
Neighs:    301883 ave 315077 max 278629 min
Histogram: 1 0 0 0 0 0 2 1 1 1
FullNghs: 603766 ave 628612 max 556822 min
Histogram: 1 0 0 0 0 0 2 1 1 1

Total # of neighbors = 3622594
Ave neighs/atom = 114.079
Ave special neighs/atom = 5.09986
Neighbor list builds = 100
Dangerous builds = 99
velocity all zero linear
WARNING: Use special bonds = 0,1,1 with bond style fene (bond_fene.cpp:189)
Memory usage per processor = 18.891 Mbytes
Step sdpd_kin pTemp 
  340000 1.0251411e+09 1.0026602e+09 
  340100 1.0218377e+09 9.9890509e+08 
  340200 1.0318833e+09 1.0088748e+09 
  340300 1.0214442e+09 9.9820747e+08 
  340400 1.0240032e+09 1.0010399e+09 
  340500 1.0229529e+09 1.000154e+09 
  340600 1.0279346e+09 1.0053945e+09 
  340700 1.0229427e+09 9.9988347e+08 
  340800 1.0233578e+09 1.0005107e+09 
  340900 1.0210241e+09 9.9854089e+08 
  341000 1.0402216e+09 1.018056e+09 
Loop time of 661.661 on 6 procs for 1000 steps with 31755 atoms

Pair  time (%) = 598.461 (90.4483)
Bond  time (%) = 0.769542 (0.116305)
Neigh time (%) = 5.12778 (0.774987)
Comm  time (%) = 22.6544 (3.42387)
Outpt time (%) = 2.10908 (0.318755)
Other time (%) = 32.5389 (4.91777)

Nlocal:    5292.5 ave 5409 max 5072 min
Histogram: 1 0 0 0 0 1 0 1 2 1
Nghost:    7796.17 ave 8030 max 7550 min
Histogram: 2 0 0 0 1 0 0 2 0 1
Neighs:    301787 ave 309038 max 279184 min
Histogram: 1 0 0 0 0 0 0 1 1 3
FullNghs: 603574 ave 618971 max 558695 min
Histogram: 1 0 0 0 0 0 0 1 1 3

Total # of neighbors = 3621446
Ave neighs/atom = 114.043
Ave special neighs/atom = 5.09986
Neighbor list builds = 100
Dangerous builds = 100
velocity all zero linear
WARNING: Use special bonds = 0,1,1 with bond style fene (bond_fene.cpp:189)
Memory usage per processor = 18.891 Mbytes
Step sdpd_kin pTemp 
  341000 1.0402211e+09 1.018056e+09 
  341100 1.0259277e+09 1.0031816e+09 
  341200 1.0285733e+09 1.0065007e+09 
  341300 1.0218369e+09 1.0001271e+09 
  341400 1.0189146e+09 9.9711688e+08 
  341500 1.0280154e+09 1.0056591e+09 
  341600 1.0189676e+09 9.9677855e+08 
  341700 1.0252536e+09 1.0034768e+09 
  341800 1.0163047e+09 9.945334e+08 
  341900 1.0262472e+09 1.0045503e+09 
  342000 1.0308969e+09 1.0085487e+09 
Loop time of 657.986 on 6 procs for 1000 steps with 31755 atoms

Pair  time (%) = 599.295 (91.0803)
Bond  time (%) = 0.776396 (0.117996)
Neigh time (%) = 5.14495 (0.781924)
Comm  time (%) = 17.157 (2.6075)
Outpt time (%) = 2.09266 (0.31804)
Other time (%) = 33.5196 (5.09427)

Nlocal:    5292.5 ave 5383 max 5137 min
Histogram: 1 0 0 0 0 0 3 1 0 1
Nghost:    7726.67 ave 7943 max 7350 min
Histogram: 1 0 0 1 0 0 1 0 1 2
Neighs:    302377 ave 306095 max 290551 min
Histogram: 1 0 0 0 0 0 0 0 3 2
FullNghs: 604754 ave 613130 max 581550 min
Histogram: 1 0 0 0 0 0 0 1 2 2

Total # of neighbors = 3628526
Ave neighs/atom = 114.266
Ave special neighs/atom = 5.09986
Neighbor list builds = 100
Dangerous builds = 100
velocity all zero linear
WARNING: Use special bonds = 0,1,1 with bond style fene (bond_fene.cpp:189)
Memory usage per processor = 18.891 Mbytes
Step sdpd_kin pTemp 
  342000 1.0308962e+09 1.0085487e+09 
  342100 1.0256526e+09 1.0035072e+09 
  342200 1.0261868e+09 1.0045551e+09 
  342300 1.0226861e+09 9.9979752e+08 
  342400 1.0253812e+09 1.0026515e+09 
  342500 1.0266332e+09 1.0039527e+09 
  342600 1.022412e+09 1.000179e+09 
  342700 1.0212992e+09 9.9917356e+08 
  342800 1.0233819e+09 1.0010836e+09 
  342900 1.0205137e+09 9.9808423e+08 
  343000 1.0169224e+09 9.9396045e+08 
Loop time of 665.22 on 6 procs for 1000 steps with 31755 atoms

Pair  time (%) = 601.037 (90.3516)
Bond  time (%) = 0.773483 (0.116275)
Neigh time (%) = 5.14073 (0.772786)
Comm  time (%) = 23.9921 (3.60665)
Outpt time (%) = 2.09679 (0.315203)
Other time (%) = 32.1796 (4.83744)

Nlocal:    5292.5 ave 5443 max 5062 min
Histogram: 1 0 0 1 1 0 0 0 1 2
Nghost:    7752.83 ave 7851 max 7651 min
Histogram: 1 0 0 1 0 2 1 0 0 1
Neighs:    302536 ave 323832 max 279415 min
Histogram: 1 0 0 2 0 0 1 1 0 1
FullNghs: 605072 ave 648292 max 558673 min
Histogram: 1 0 0 2 0 0 1 1 0 1

Total # of neighbors = 3630432
Ave neighs/atom = 114.326
Ave special neighs/atom = 5.09986
Neighbor list builds = 100
Dangerous builds = 100
velocity all zero linear
WARNING: Use special bonds = 0,1,1 with bond style fene (bond_fene.cpp:189)
Memory usage per processor = 18.891 Mbytes
Step sdpd_kin pTemp 
  343000 1.016922e+09 9.9396045e+08 
  343100  1.02706e+09 1.0040038e+09 
  343200 1.025075e+09 1.0021557e+09 
  343300 1.0269259e+09 1.0037005e+09 
  343400 1.0290249e+09 1.0059761e+09 
  343500 1.0248318e+09 1.0019166e+09 
  343600 1.0329771e+09 1.0104957e+09 
  343700 1.0288857e+09 1.0059451e+09 
  343800 1.0217758e+09 9.9937011e+08 
  343900 1.0187913e+09 9.9601513e+08 
  344000 1.0213876e+09 9.9865216e+08 
Loop time of 684.308 on 6 procs for 1000 steps with 31755 atoms

Pair  time (%) = 602.257 (88.0096)
Bond  time (%) = 0.768644 (0.112324)
Neigh time (%) = 5.13153 (0.749885)
Comm  time (%) = 39.2497 (5.73568)
Outpt time (%) = 2.10036 (0.306933)
Other time (%) = 34.8008 (5.08555)

Nlocal:    5292.5 ave 5432 max 5161 min
Histogram: 1 1 0 1 0 1 0 0 0 2
Nghost:    7919 ave 8249 max 7620 min
Histogram: 2 0 1 0 0 0 0 1 1 1
Neighs:    303302 ave 320009 max 289670 min
Histogram: 2 1 0 0 0 1 0 0 0 2
FullNghs: 606605 ave 641832 max 578440 min
Histogram: 1 2 0 0 0 1 0 0 0 2

Total # of neighbors = 3639628
Ave neighs/atom = 114.616
Ave special neighs/atom = 5.09986
Neighbor list builds = 100
Dangerous builds = 100
velocity all zero linear
WARNING: Use special bonds = 0,1,1 with bond style fene (bond_fene.cpp:189)
Memory usage per processor = 18.1281 Mbytes
Step sdpd_kin pTemp 
  344000 1.0213875e+09 9.9865216e+08 
  344100 1.020451e+09 9.9695596e+08 
  344200 1.0278244e+09 1.0054827e+09 
  344300 1.0257007e+09 1.0033107e+09 
  344400 1.0235526e+09 1.0016825e+09 
  344500 1.0273209e+09 1.0058413e+09 
  344600 1.0302542e+09 1.0086194e+09 
  344700 1.0257551e+09 1.0040024e+09 
  344800 1.0225221e+09 1.0001383e+09 
  344900 1.032337e+09 1.0105698e+09 
  345000 1.0257459e+09 1.003668e+09 
Loop time of 682.431 on 6 procs for 1000 steps with 31755 atoms

Pair  time (%) = 603.097 (88.3748)
Bond  time (%) = 0.77566 (0.113661)
Neigh time (%) = 5.12558 (0.751076)
Comm  time (%) = 39.5245 (5.79172)
Outpt time (%) = 2.1034 (0.308221)
Other time (%) = 31.8049 (4.66053)

Nlocal:    5292.5 ave 5459 max 5136 min
Histogram: 1 1 0 0 1 1 0 1 0 1
Nghost:    7755.17 ave 7910 max 7616 min
Histogram: 2 0 1 0 0 0 1 0 1 1
Neighs:    302587 ave 317422 max 290799 min
Histogram: 2 0 0 0 1 1 0 1 0 1
FullNghs: 605174 ave 633206 max 582288 min
Histogram: 2 0 0 0 1 1 0 1 0 1

Total # of neighbors = 3631042
Ave neighs/atom = 114.346
Ave special neighs/atom = 5.09986
Neighbor list builds = 100
Dangerous builds = 100
velocity all zero linear
WARNING: Use special bonds = 0,1,1 with bond style fene (bond_fene.cpp:189)
Memory usage per processor = 18.1281 Mbytes
Step sdpd_kin pTemp 
  345000 1.0257459e+09 1.003668e+09 
  345100 1.0273451e+09 1.0057058e+09 
  345200 1.016378e+09 9.947106e+08 
  345300 1.0240221e+09 1.0022074e+09 
  345400 1.0294405e+09 1.0078106e+09 
  345500 1.0248145e+09 1.003436e+09 
  345600 1.0302717e+09 1.0085778e+09 
  345700 1.0148081e+09 9.9330996e+08 
  345800 1.0219797e+09 1.0007163e+09 
  345900 1.021046e+09 9.9933966e+08 
  346000 1.0180888e+09 9.9670167e+08 
Loop time of 667.616 on 6 procs for 1000 steps with 31755 atoms

Pair  time (%) = 601.671 (90.1223)
Bond  time (%) = 0.772696 (0.11574)
Neigh time (%) = 5.13022 (0.768439)
Comm  time (%) = 25.4471 (3.81163)
Outpt time (%) = 2.08177 (0.311822)
Other time (%) = 32.5132 (4.87004)

Nlocal:    5292.5 ave 5455 max 5196 min
Histogram: 1 0 2 2 0 0 0 0 0 1
Nghost:    7716.83 ave 7837 max 7592 min
Histogram: 1 0 1 1 0 1 0 0 1 1
Neighs:    303104 ave 314363 max 295783 min
Histogram: 1 1 0 1 2 0 0 0 0 1
FullNghs: 606209 ave 628647 max 589640 min
Histogram: 1 0 1 1 2 0 0 0 0 1

Total # of neighbors = 3637252
Ave neighs/atom = 114.541
Ave special neighs/atom = 5.09986
Neighbor list builds = 100
Dangerous builds = 100
velocity all zero linear
WARNING: Use special bonds = 0,1,1 with bond style fene (bond_fene.cpp:189)
Memory usage per processor = 18.891 Mbytes
Step sdpd_kin pTemp 
  346000 1.0180888e+09 9.9670167e+08 
  346100 1.0331378e+09 1.0109563e+09 
  346200 1.0189591e+09 9.9689968e+08 
  346300 1.0213705e+09 9.9958912e+08 
  346400 1.0294192e+09 1.0076501e+09 
  346500 1.0313985e+09 1.009497e+09 
  346600 1.0268864e+09 1.0049782e+09 
  346700 1.0269938e+09 1.0051284e+09 
  346800 1.0232857e+09 1.0015028e+09 
  346900 1.023132e+09 1.0014715e+09 
  347000 1.0257206e+09 1.0039407e+09 
Loop time of 674.399 on 6 procs for 1000 steps with 31755 atoms

Pair  time (%) = 603.775 (89.5279)
Bond  time (%) = 0.776922 (0.115202)
Neigh time (%) = 5.14937 (0.763549)
Comm  time (%) = 28.6146 (4.24298)
Outpt time (%) = 2.09943 (0.311304)
Other time (%) = 33.9837 (5.03911)

Nlocal:    5292.5 ave 5357 max 5203 min
Histogram: 1 0 0 0 0 3 0 1 0 1
Nghost:    7739 ave 7792 max 7676 min
Histogram: 1 1 0 1 0 0 0 0 1 2
Neighs:    304028 ave 311649 max 296447 min
Histogram: 1 0 2 0 0 1 0 0 0 2
FullNghs: 608055 ave 623322 max 592398 min
Histogram: 1 0 2 0 0 1 0 0 0 2

Total # of neighbors = 3648332
Ave neighs/atom = 114.89
Ave special neighs/atom = 5.09986
Neighbor list builds = 100
Dangerous builds = 100
velocity all zero linear
WARNING: Use special bonds = 0,1,1 with bond style fene (bond_fene.cpp:189)
Memory usage per processor = 18.891 Mbytes
Step sdpd_kin pTemp 
  347000 1.0257206e+09 1.0039407e+09 
  347100 1.0255505e+09 1.0038247e+09 
  347200 1.0244322e+09 1.0031372e+09 
  347300 1.0280947e+09 1.0069948e+09 
  347400 1.0231865e+09 1.0019566e+09 
  347500 1.0186853e+09 9.9743356e+08 
  347600 1.0219384e+09 1.0005128e+09 
  347700 1.0229781e+09 1.0009942e+09 
  347800 1.0303222e+09 1.0082047e+09 
  347900 1.0231777e+09 1.0011341e+09 
  348000 1.0165754e+09 9.9446468e+08 
Loop time of 677.844 on 6 procs for 1000 steps with 31755 atoms

Pair  time (%) = 603.431 (89.0221)
Bond  time (%) = 0.78995 (0.116539)
Neigh time (%) = 5.13835 (0.758043)
Comm  time (%) = 33.3946 (4.92659)
Outpt time (%) = 2.106 (0.310691)
Other time (%) = 32.9843 (4.86606)

Nlocal:    5292.5 ave 5462 max 5184 min
Histogram: 2 0 0 1 1 1 0 0 0 1
Nghost:    7709.33 ave 7955 max 7462 min
Histogram: 1 0 0 2 0 1 0 1 0 1
Neighs:    302485 ave 320032 max 288301 min
Histogram: 2 0 0 0 1 2 0 0 0 1
FullNghs: 604970 ave 639141 max 576803 min
Histogram: 2 0 0 0 1 1 1 0 0 1

Total # of neighbors = 3629822
Ave neighs/atom = 114.307
Ave special neighs/atom = 5.09986
Neighbor list builds = 100
Dangerous builds = 100
velocity all zero linear
WARNING: Use special bonds = 0,1,1 with bond style fene (bond_fene.cpp:189)
Memory usage per processor = 18.891 Mbytes
Step sdpd_kin pTemp 
  348000 1.0165754e+09 9.9446468e+08 
  348100 1.0262813e+09 1.0042506e+09 
  348200 1.0224963e+09 1.0004073e+09 
  348300 1.0266777e+09 1.0045773e+09 
  348400 1.0270403e+09 1.0049269e+09 
  348500 1.0203992e+09 9.9838952e+08 
  348600 1.0184501e+09 9.9696692e+08 
  348700 1.027012e+09 1.0051912e+09 
  348800 1.021072e+09 9.9937566e+08 
  348900 1.0155888e+09 9.9394554e+08 
  349000 1.0180712e+09 9.9681478e+08 
Loop time of 680.057 on 6 procs for 1000 steps with 31755 atoms

Pair  time (%) = 602.663 (88.6195)
Bond  time (%) = 0.791163 (0.116338)
Neigh time (%) = 5.15159 (0.757524)
Comm  time (%) = 35.3479 (5.19779)
Outpt time (%) = 2.1035 (0.309312)
Other time (%) = 33.9994 (4.9995)

Nlocal:    5292.5 ave 5469 max 5157 min
Histogram: 2 0 0 1 1 0 0 1 0 1
Nghost:    7743.17 ave 7932 max 7495 min
Histogram: 1 1 0 0 0 1 0 0 1 2
Neighs:    301626 ave 318283 max 283863 min
Histogram: 1 1 0 0 1 0 1 0 1 1
FullNghs: 603251 ave 637700 max 567080 min
Histogram: 1 0 1 0 1 0 1 0 1 1

Total # of neighbors = 3619508
Ave neighs/atom = 113.982
Ave special neighs/atom = 5.09986
Neighbor list builds = 100
Dangerous builds = 100
velocity all zero linear
WARNING: Use special bonds = 0,1,1 with bond style fene (bond_fene.cpp:189)
Memory usage per processor = 18.891 Mbytes
Step sdpd_kin pTemp 
  349000 1.0180711e+09 9.9681478e+08 
  349100 1.0274949e+09 1.0064438e+09 
  349200 1.0175702e+09 9.9636975e+08 
  349300 1.0225668e+09 1.001725e+09 
  349400 1.0205397e+09 9.9953477e+08 
  349500 1.0184424e+09 9.9761594e+08 
  349600 1.0150999e+09 9.9413587e+08 
  349700 1.0315897e+09 1.0104331e+09 
  349800 1.0270436e+09 1.0055938e+09 
  349900 1.0236019e+09 1.0023615e+09 
  350000 1.0226089e+09 1.0010959e+09 
Loop time of 671.075 on 6 procs for 1000 steps with 31755 atoms

Pair  time (%) = 600.681 (89.5103)
Bond  time (%) = 0.790122 (0.11774)
Neigh time (%) = 5.14252 (0.766311)
Comm  time (%) = 28.7718 (4.28742)
Outpt time (%) = 2.12045 (0.315978)
Other time (%) = 33.5687 (5.00223)

Nlocal:    5292.5 ave 5458 max 5155 min
Histogram: 1 1 1 0 0 0 1 1 0 1
Nghost:    7689.5 ave 8088 max 7334 min
Histogram: 1 0 1 1 0 1 0 1 0 1
Neighs:    301246 ave 317869 max 284772 min
Histogram: 1 0 1 1 0 0 1 1 0 1
FullNghs: 602492 ave 636722 max 567603 min
Histogram: 1 0 1 1 0 0 1 1 0 1

Total # of neighbors = 3614954
Ave neighs/atom = 113.839
Ave special neighs/atom = 5.09986
Neighbor list builds = 100
Dangerous builds = 99
velocity all zero linear
WARNING: Use special bonds = 0,1,1 with bond style fene (bond_fene.cpp:189)
Memory usage per processor = 18.891 Mbytes
Step sdpd_kin pTemp 
  350000 1.0226089e+09 1.0010959e+09 
  350100 1.0177296e+09 9.9596033e+08 
  350200 1.024728e+09 1.0033168e+09 
  350300 1.0225696e+09 1.001285e+09 
  350400 1.0216197e+09 1.0001779e+09 
  350500 1.0238561e+09 1.0021064e+09 
  350600 1.0255707e+09 1.0042449e+09 
  350700 1.0214393e+09 9.9976757e+08 
  350800 1.0293231e+09 1.007855e+09 
  350900 1.024387e+09 1.0030467e+09 
  351000 1.0224732e+09 1.0008022e+09 
Loop time of 672.957 on 6 procs for 1000 steps with 31755 atoms

Pair  time (%) = 601.486 (89.3797)
Bond  time (%) = 0.804888 (0.119605)
Neigh time (%) = 5.1543 (0.765919)
Comm  time (%) = 29.6852 (4.41115)
Outpt time (%) = 2.09275 (0.310978)
Other time (%) = 33.7332 (5.01268)

Nlocal:    5292.5 ave 5507 max 5100 min
Histogram: 1 0 0 2 0 1 1 0 0 1
Nghost:    7727 ave 8065 max 7290 min
Histogram: 1 0 0 0 1 1 1 0 1 1
Neighs:    301136 ave 323564 max 280150 min
Histogram: 1 0 1 1 0 0 2 0 0 1
FullNghs: 602273 ave 646802 max 560580 min
Histogram: 1 0 1 1 0 0 2 0 0 1

Total # of neighbors = 3613636
Ave neighs/atom = 113.797
Ave special neighs/atom = 5.09986
Neighbor list builds = 100
Dangerous builds = 100
velocity all zero linear
WARNING: Use special bonds = 0,1,1 with bond style fene (bond_fene.cpp:189)
Memory usage per processor = 18.891 Mbytes
Step sdpd_kin pTemp 
  351000 1.0224731e+09 1.0008022e+09 
  351100 1.0209941e+09 9.9923818e+08 
  351200 1.0219502e+09 1.0002936e+09 
  351300 1.0198764e+09 9.9784206e+08 
  351400 1.024941e+09 1.0027204e+09 
  351500 1.0136752e+09 9.9147832e+08 
  351600 1.0227201e+09 1.0007524e+09 
  351700 1.0302522e+09 1.0086425e+09 
  351800 1.024836e+09 1.0033137e+09 
  351900 1.0148693e+09 9.9346225e+08 
  352000 1.0220901e+09 1.0000814e+09 
Loop time of 698.461 on 6 procs for 1000 steps with 31755 atoms

Pair  time (%) = 607.481 (86.9742)
Bond  time (%) = 0.827545 (0.118481)
Neigh time (%) = 5.20496 (0.745205)
Comm  time (%) = 45.903 (6.57201)
Outpt time (%) = 2.12303 (0.303958)
Other time (%) = 36.922 (5.28619)

Nlocal:    5292.5 ave 5446 max 5108 min
Histogram: 1 0 1 0 0 1 1 0 1 1
Nghost:    7831.17 ave 8076 max 7455 min
Histogram: 1 0 0 1 0 0 1 2 0 1
Neighs:    301221 ave 319530 max 280578 min
Histogram: 1 1 0 0 0 1 1 0 1 1
FullNghs: 602443 ave 636934 max 562113 min
Histogram: 1 1 0 0 0 1 1 0 1 1

Total # of neighbors = 3614656
Ave neighs/atom = 113.83
Ave special neighs/atom = 5.09986
Neighbor list builds = 100
Dangerous builds = 100
velocity all zero linear
WARNING: Use special bonds = 0,1,1 with bond style fene (bond_fene.cpp:189)
Memory usage per processor = 18.891 Mbytes
Step sdpd_kin pTemp 
  352000  1.02209e+09 1.0000814e+09 
  352100 1.0197584e+09 9.9755352e+08 
  352200 1.0218766e+09 1.0002612e+09 
  352300 1.0245642e+09 1.0032097e+09 
  352400 1.0280283e+09 1.0061035e+09 
  352500 1.0261624e+09 1.0039749e+09 
  352600 1.0174557e+09 9.9542053e+08 
  352700 1.0280224e+09 1.005453e+09 
  352800 1.0341777e+09 1.0119082e+09 
  352900 1.0336569e+09 1.0117517e+09 
  353000 1.016751e+09 9.945646e+08 
Loop time of 688.446 on 6 procs for 1000 steps with 31755 atoms

Pair  time (%) = 606.312 (88.0696)
Bond  time (%) = 0.808933 (0.117501)
Neigh time (%) = 5.19041 (0.753931)
Comm  time (%) = 37.5208 (5.45007)
Outpt time (%) = 2.10751 (0.306125)
Other time (%) = 36.5065 (5.30274)

Nlocal:    5292.5 ave 5420 max 5118 min
Histogram: 1 1 0 0 0 0 0 2 1 1
Nghost:    7734 ave 7895 max 7452 min
Histogram: 1 0 0 1 0 0 0 1 2 1
Neighs:    302369 ave 317598 max 280975 min
Histogram: 1 1 0 0 0 0 1 1 1 1
FullNghs: 604738 ave 634844 max 562410 min
Histogram: 1 1 0 0 0 0 1 0 2 1

Total # of neighbors = 3628430
Ave neighs/atom = 114.263
Ave special neighs/atom = 5.09986
Neighbor list builds = 100
Dangerous builds = 100
velocity all zero linear
WARNING: Use special bonds = 0,1,1 with bond style fene (bond_fene.cpp:189)
Memory usage per processor = 18.891 Mbytes
Step sdpd_kin pTemp 
  353000 1.016751e+09 9.945646e+08 
  353100 1.0248809e+09 1.0020858e+09 
  353200 1.0277397e+09 1.0057235e+09 
  353300 1.0231795e+09 1.0011547e+09 
  353400 1.027617e+09 1.0050444e+09 
  353500 1.0311722e+09 1.0092506e+09 
  353600 1.0271506e+09 1.0052364e+09 
  353700 1.0208159e+09 9.9896451e+08 
  353800 1.0256006e+09 1.0039483e+09 
  353900 1.0263771e+09 1.0045566e+09 
  354000 1.0196637e+09 9.9801942e+08 
Loop time of 677.649 on 6 procs for 1000 steps with 31755 atoms

Pair  time (%) = 604.638 (89.2259)
Bond  time (%) = 0.809673 (0.119483)
Neigh time (%) = 5.18088 (0.764537)
Comm  time (%) = 29.5061 (4.35419)
Outpt time (%) = 2.10125 (0.310079)
Other time (%) = 35.4129 (5.22585)

Nlocal:    5292.5 ave 5394 max 5074 min
Histogram: 1 0 0 0 0 0 2 1 0 2
Nghost:    7696.17 ave 7915 max 7301 min
Histogram: 1 0 0 0 0 1 1 1 0 2
Neighs:    303173 ave 311230 max 286620 min
Histogram: 1 0 0 1 0 0 0 1 0 3
FullNghs: 606345 ave 622216 max 570731 min
Histogram: 1 0 0 0 1 0 0 0 1 3

Total # of neighbors = 3638072
Ave neighs/atom = 114.567
Ave special neighs/atom = 5.09986
Neighbor list builds = 100
Dangerous builds = 100
velocity all zero linear
WARNING: Use special bonds = 0,1,1 with bond style fene (bond_fene.cpp:189)
Memory usage per processor = 18.891 Mbytes
Step sdpd_kin pTemp 
  354000 1.0196637e+09 9.9801942e+08 
  354100 1.0155786e+09 9.9386921e+08 
  354200 1.0271196e+09 1.0058213e+09 
  354300 1.0250681e+09 1.004362e+09 
  354400 1.0255987e+09 1.0041218e+09 
  354500 1.0284931e+09 1.0070824e+09 
  354600 1.0284445e+09 1.0064893e+09 
  354700 1.0207364e+09 9.991062e+08 
  354800 1.0173464e+09 9.9606915e+08 
  354900 1.0220654e+09 1.0005382e+09 
  355000 1.0238477e+09 1.002549e+09 
Loop time of 676.906 on 6 procs for 1000 steps with 31755 atoms

Pair  time (%) = 605.156 (89.4002)
Bond  time (%) = 0.81381 (0.120225)
Neigh time (%) = 5.1792 (0.765129)
Comm  time (%) = 28.8586 (4.26331)
Outpt time (%) = 2.11411 (0.312319)
Other time (%) = 34.7848 (5.1388)

Nlocal:    5292.5 ave 5451 max 5189 min
Histogram: 2 0 1 1 0 0 1 0 0 1
Nghost:    7622.17 ave 7832 max 7419 min
Histogram: 1 1 0 1 0 0 1 1 0 1
Neighs:    302137 ave 317923 max 292465 min
Histogram: 1 2 0 1 0 0 1 0 0 1
FullNghs: 604274 ave 636434 max 583508 min
Histogram: 2 1 0 0 1 0 1 0 0 1

Total # of neighbors = 3625642
Ave neighs/atom = 114.175
Ave special neighs/atom = 5.09986
Neighbor list builds = 100
Dangerous builds = 100
velocity all zero linear
WARNING: Use special bonds = 0,1,1 with bond style fene (bond_fene.cpp:189)
Memory usage per processor = 18.891 Mbytes
Step sdpd_kin pTemp 
  355000 1.0238477e+09 1.002549e+09 
  355100 1.0308657e+09 1.0097943e+09 
  355200 1.0303266e+09 1.0088838e+09 
  355300 1.036257e+09 1.014593e+09 
  355400 1.0209376e+09 9.9930506e+08 
  355500 1.0262413e+09 1.0047124e+09 
  355600 1.0228023e+09 1.0010925e+09 
  355700 1.026692e+09 1.004851e+09 
  355800 1.0261107e+09 1.0040898e+09 
  355900 1.0134002e+09 9.9216498e+08 
  356000 1.0280612e+09 1.0068151e+09 
Loop time of 692.181 on 6 procs for 1000 steps with 31755 atoms

Pair  time (%) = 606.918 (87.6819)
Bond  time (%) = 0.822649 (0.118849)
Neigh time (%) = 5.18153 (0.748579)
Comm  time (%) = 41.825 (6.04249)
Outpt time (%) = 2.12099 (0.306421)
Other time (%) = 35.3132 (5.10172)

Nlocal:    5292.5 ave 5500 max 5114 min
Histogram: 1 0 1 1 0 1 1 0 0 1
Nghost:    7657.67 ave 7858 max 7433 min
Histogram: 1 1 0 0 1 0 0 1 1 1
Neighs:    301447 ave 323107 max 279886 min
Histogram: 1 0 1 1 0 0 1 1 0 1
FullNghs: 602895 ave 647398 max 560378 min
Histogram: 1 0 1 1 0 0 1 1 0 1

Total # of neighbors = 3617368
Ave neighs/atom = 113.915
Ave special neighs/atom = 5.09986
Neighbor list builds = 100
Dangerous builds = 100
velocity all zero linear
WARNING: Use special bonds = 0,1,1 with bond style fene (bond_fene.cpp:189)
Memory usage per processor = 18.891 Mbytes
Step sdpd_kin pTemp 
  356000 1.0280611e+09 1.0068151e+09 
  356100 1.022118e+09 1.0002345e+09 
  356200 1.0228966e+09 1.0011163e+09 
  356300 1.0304005e+09 1.0085523e+09 
  356400 1.0261318e+09 1.0044372e+09 
  356500 1.0265945e+09 1.0044299e+09 
  356600 1.0236665e+09 1.0019513e+09 
  356700 1.0234581e+09 1.0016002e+09 
  356800 1.0289225e+09 1.0065036e+09 
  356900 1.0289621e+09 1.0063315e+09 
  357000 1.0251521e+09 1.0020894e+09 
Loop time of 681.836 on 6 procs for 1000 steps with 31755 atoms

Pair  time (%) = 603.114 (88.4543)
Bond  time (%) = 0.803252 (0.117807)
Neigh time (%) = 5.16456 (0.75745)
Comm  time (%) = 35.9008 (5.26531)
Outpt time (%) = 2.1289 (0.31223)
Other time (%) = 34.7249 (5.09286)

Nlocal:    5292.5 ave 5437 max 5156 min
Histogram: 2 0 0 0 1 0 1 1 0 1
Nghost:    7722.5 ave 7866 max 7642 min
Histogram: 1 1 2 0 1 0 0 0 0 1
Neighs:    302225 ave 317083 max 288739 min
Histogram: 1 1 0 0 2 0 0 0 1 1
FullNghs: 604450 ave 635078 max 578451 min
Histogram: 2 0 0 0 2 0 0 0 1 1

Total # of neighbors = 3626698
Ave neighs/atom = 114.209
Ave special neighs/atom = 5.09986
Neighbor list builds = 100
Dangerous builds = 100
velocity all zero linear
WARNING: Use special bonds = 0,1,1 with bond style fene (bond_fene.cpp:189)
Memory usage per processor = 18.891 Mbytes
Step sdpd_kin pTemp 
  357000 1.0251519e+09 1.0020894e+09 
  357100 1.0238346e+09 1.0010645e+09 
  357200 1.0183837e+09 9.9617565e+08 
  357300 1.0239627e+09 1.0013842e+09 
  357400 1.0276666e+09 1.0048435e+09 
  357500 1.0225579e+09 9.9986143e+08 
  357600 1.0222575e+09 9.9951409e+08 
  357700 1.0291409e+09 1.0064129e+09 
  357800 1.035604e+09 1.0129565e+09 
  357900 1.0225908e+09 9.9980532e+08 
  358000 1.0189948e+09 9.9617537e+08 
Loop time of 679.887 on 6 procs for 1000 steps with 31755 atoms

Pair  time (%) = 605.536 (89.0642)
Bond  time (%) = 0.798169 (0.117397)
Neigh time (%) = 5.19094 (0.763501)
Comm  time (%) = 30.2251 (4.4456)
Outpt time (%) = 2.12068 (0.311916)
Other time (%) = 36.0164 (5.29741)

Nlocal:    5292.5 ave 5372 max 5234 min
Histogram: 1 1 0 2 0 0 1 0 0 1
Nghost:    7701 ave 7852 max 7591 min
Histogram: 2 0 1 1 0 0 0 0 1 1
Neighs:    302252 ave 311804 max 296973 min
Histogram: 2 1 1 0 0 0 0 1 0 1
FullNghs: 604505 ave 625595 max 593690 min
Histogram: 2 1 1 0 0 0 1 0 0 1

Total # of neighbors = 3627028
Ave neighs/atom = 114.219
Ave special neighs/atom = 5.09986
Neighbor list builds = 100
Dangerous builds = 100
velocity all zero linear
WARNING: Use special bonds = 0,1,1 with bond style fene (bond_fene.cpp:189)
Memory usage per processor = 18.891 Mbytes
Step sdpd_kin pTemp 
  358000 1.0189948e+09 9.9617537e+08 
  358100 1.0299486e+09 1.0071187e+09 
  358200 1.0201392e+09 9.9811439e+08 
  358300 1.0242651e+09 1.0018551e+09 
  358400 1.0306729e+09 1.0082553e+09 
  358500 1.0295479e+09 1.0067768e+09 
  358600 1.0200586e+09 9.9741661e+08 
  358700 1.0201261e+09 9.9740382e+08 
  358800 1.0262327e+09 1.0034808e+09 
  358900 1.0195043e+09 9.9658275e+08 
  359000 1.0248565e+09 1.0023182e+09 
Loop time of 669.657 on 6 procs for 1000 steps with 31755 atoms

Pair  time (%) = 604.768 (90.3101)
Bond  time (%) = 0.809749 (0.12092)
Neigh time (%) = 5.18422 (0.774161)
Comm  time (%) = 22.3745 (3.34118)
Outpt time (%) = 2.12219 (0.316908)
Other time (%) = 34.3984 (5.13672)

Nlocal:    5292.5 ave 5363 max 5158 min
Histogram: 1 0 0 0 1 1 0 0 0 3
Nghost:    7733.17 ave 7854 max 7592 min
Histogram: 1 1 0 0 0 2 0 0 0 2
Neighs:    301835 ave 306994 max 289926 min
Histogram: 1 0 0 0 0 0 2 0 0 3
FullNghs: 603670 ave 613910 max 579766 min
Histogram: 1 0 0 0 0 0 2 0 0 3

Total # of neighbors = 3622022
Ave neighs/atom = 114.061
Ave special neighs/atom = 5.09986
Neighbor list builds = 100
Dangerous builds = 100
velocity all zero linear
WARNING: Use special bonds = 0,1,1 with bond style fene (bond_fene.cpp:189)
Memory usage per processor = 18.891 Mbytes
Step sdpd_kin pTemp 
  359000 1.0248565e+09 1.0023182e+09 
  359100 1.0225272e+09 9.9997804e+08 
  359200 1.0312495e+09 1.0086095e+09 
  359300 1.026826e+09 1.0039373e+09 
  359400 1.0306784e+09 1.0081668e+09 
  359500 1.0278734e+09  1.00578e+09 
  359600 1.0166674e+09 9.9472684e+08 
  359700 1.0232355e+09 1.0005787e+09 
  359800 1.0225437e+09 1.0001129e+09 
  359900 1.022364e+09 1.0004342e+09 
  360000 1.0201481e+09 9.9775491e+08 
Loop time of 680.526 on 6 procs for 1000 steps with 31755 atoms

Pair  time (%) = 608.511 (89.4178)
Bond  time (%) = 0.827167 (0.121548)
Neigh time (%) = 5.23846 (0.769767)
Comm  time (%) = 27.1465 (3.98906)
Outpt time (%) = 2.15469 (0.316622)
Other time (%) = 36.6478 (5.38521)

Nlocal:    5292.5 ave 5364 max 5188 min
Histogram: 2 0 0 0 0 0 1 0 1 2
Nghost:    7821.83 ave 7940 max 7622 min
Histogram: 1 0 0 0 0 1 2 0 0 2
Neighs:    302778 ave 312154 max 290730 min
Histogram: 2 0 0 0 0 0 1 1 0 2
FullNghs: 605557 ave 625748 max 580971 min
Histogram: 2 0 0 0 0 0 1 1 0 2

Total # of neighbors = 3633340
Ave neighs/atom = 114.418
Ave special neighs/atom = 5.09986
Neighbor list builds = 100
Dangerous builds = 99
velocity all zero linear
WARNING: Use special bonds = 0,1,1 with bond style fene (bond_fene.cpp:189)
Memory usage per processor = 18.891 Mbytes
Step sdpd_kin pTemp 
  360000 1.020148e+09 9.9775491e+08 
  360100 1.0261903e+09 1.003442e+09 
  360200 1.0230857e+09 9.999008e+08 
  360300 1.0286927e+09 1.0061476e+09 
  360400 1.0255499e+09 1.0023948e+09 
  360500 1.0186453e+09 9.9559355e+08 
  360600 1.0185073e+09 9.9609201e+08 
  360700 1.0319275e+09 1.0095609e+09 
  360800 1.0168986e+09 9.9423483e+08 
  360900 1.0333123e+09 1.0107788e+09 
  361000 1.0228067e+09 1.0006714e+09 
Loop time of 706.438 on 6 procs for 1000 steps with 31755 atoms

Pair  time (%) = 617.831 (87.4572)
Bond  time (%) = 0.851553 (0.120542)
Neigh time (%) = 5.32506 (0.753791)
Comm  time (%) = 40.4584 (5.72711)
Outpt time (%) = 2.30707 (0.326578)
Other time (%) = 39.6647 (5.61475)

Nlocal:    5292.5 ave 5413 max 5230 min
Histogram: 1 0 3 1 0 0 0 0 0 1
Nghost:    7820.67 ave 8106 max 7679 min
Histogram: 1 0 4 0 0 0 0 0 0 1
Neighs:    302724 ave 314728 max 292958 min
Histogram: 1 0 1 1 0 2 0 0 0 1
FullNghs: 605449 ave 631736 max 585466 min
Histogram: 1 0 1 1 0 2 0 0 0 1

Total # of neighbors = 3632694
Ave neighs/atom = 114.398
Ave special neighs/atom = 5.09986
Neighbor list builds = 100
Dangerous builds = 100
velocity all zero linear
WARNING: Use special bonds = 0,1,1 with bond style fene (bond_fene.cpp:189)
Memory usage per processor = 18.891 Mbytes
Step sdpd_kin pTemp 
  361000 1.0228066e+09 1.0006714e+09 
  361100 1.0286105e+09 1.0063603e+09 
  361200 1.027991e+09 1.0052185e+09 
  361300 1.0327455e+09 1.0097625e+09 
  361400 1.0273257e+09 1.0044432e+09 
  361500 1.0305985e+09 1.0078278e+09 
  361600 1.0309785e+09 1.0081412e+09 
  361700 1.0234039e+09 1.0008151e+09 
  361800 1.0311651e+09 1.0082406e+09 
  361900 1.0217093e+09 9.9885259e+08 
  362000 1.0257713e+09 1.0031173e+09 
Loop time of 683.232 on 6 procs for 1000 steps with 31755 atoms

Pair  time (%) = 606.201 (88.7256)
Bond  time (%) = 0.799806 (0.117062)
Neigh time (%) = 5.18314 (0.758621)
Comm  time (%) = 33.6613 (4.92677)
Outpt time (%) = 2.10978 (0.308795)
Other time (%) = 35.2764 (5.16316)

Nlocal:    5292.5 ave 5452 max 5187 min
Histogram: 1 0 1 1 2 0 0 0 0 1
Nghost:    7765.33 ave 7989 max 7590 min
Histogram: 1 1 1 0 1 0 1 0 0 1
Neighs:    302639 ave 317546 max 290261 min
Histogram: 1 0 1 1 0 2 0 0 0 1
FullNghs: 605277 ave 635741 max 580060 min
Histogram: 1 0 1 0 1 2 0 0 0 1

Total # of neighbors = 3631664
Ave neighs/atom = 114.365
Ave special neighs/atom = 5.09986
Neighbor list builds = 100
Dangerous builds = 100
velocity all zero linear
WARNING: Use special bonds = 0,1,1 with bond style fene (bond_fene.cpp:189)
Memory usage per processor = 18.891 Mbytes
Step sdpd_kin pTemp 
  362000 1.0257711e+09 1.0031173e+09 
  362100 1.0245564e+09 1.0013184e+09 
  362200  1.03001e+09 1.0074253e+09 
  362300 1.0236878e+09 1.0005318e+09 
  362400 1.0228257e+09 9.9976895e+08 
  362500 1.0271672e+09 1.0044493e+09 
  362600 1.0262536e+09 1.0038476e+09 
  362700 1.0224095e+09 9.9958414e+08 
  362800 1.025905e+09 1.0031091e+09 
  362900 1.0185266e+09 9.9603392e+08 
  363000 1.0316859e+09 1.0093721e+09 
Loop time of 684.041 on 6 procs for 1000 steps with 31755 atoms

Pair  time (%) = 603.93 (88.2885)
Bond  time (%) = 0.792365 (0.115836)
Neigh time (%) = 5.16637 (0.755272)
Comm  time (%) = 37.5793 (5.49372)
Outpt time (%) = 2.11058 (0.308545)
Other time (%) = 34.4631 (5.03815)

Nlocal:    5292.5 ave 5514 max 5138 min
Histogram: 1 0 1 1 2 0 0 0 0 1
Nghost:    7737 ave 7889 max 7555 min
Histogram: 1 0 0 1 0 1 2 0 0 1
Neighs:    302643 ave 325700 max 287352 min
Histogram: 1 0 1 2 1 0 0 0 0 1
FullNghs: 605285 ave 653210 max 575071 min
Histogram: 1 0 1 2 1 0 0 0 0 1

Total # of neighbors = 3631712
Ave neighs/atom = 114.367
Ave special neighs/atom = 5.09986
Neighbor list builds = 100
Dangerous builds = 100
velocity all zero linear
WARNING: Use special bonds = 0,1,1 with bond style fene (bond_fene.cpp:189)
Memory usage per processor = 18.891 Mbytes
Step sdpd_kin pTemp 
  363000 1.0316857e+09 1.0093721e+09 
  363100 1.0240891e+09 1.001857e+09 
  363200 1.0289357e+09 1.0066114e+09 
  363300 1.0197405e+09 9.9736851e+08 
  363400 1.0301388e+09 1.0074714e+09 
  363500 1.0307383e+09 1.0086071e+09 
  363600 1.0287487e+09 1.0064102e+09 
  363700 1.0255935e+09 1.0037715e+09 
  363800 1.0220992e+09 1.0000677e+09 
  363900 1.0183328e+09 9.9670821e+08 
  364000 1.0283164e+09 1.0063626e+09 
Loop time of 691.918 on 6 procs for 1000 steps with 31755 atoms

Pair  time (%) = 606.457 (87.6487)
Bond  time (%) = 0.79205 (0.114472)
Neigh time (%) = 5.1721 (0.747502)
Comm  time (%) = 42.9792 (6.21159)
Outpt time (%) = 2.10101 (0.30365)
Other time (%) = 34.4168 (4.97411)

Nlocal:    5292.5 ave 5428 max 5169 min
Histogram: 2 1 0 0 0 0 0 1 0 2
Nghost:    7769.67 ave 7950 max 7637 min
Histogram: 2 0 1 0 1 0 0 0 1 1
Neighs:    303132 ave 318209 max 288253 min
Histogram: 1 2 0 0 0 0 0 1 0 2
FullNghs: 606265 ave 636420 max 577398 min
Histogram: 1 2 0 0 0 0 1 0 0 2

Total # of neighbors = 3637588
Ave neighs/atom = 114.552
Ave special neighs/atom = 5.09986
Neighbor list builds = 100
Dangerous builds = 100
velocity all zero linear
WARNING: Use special bonds = 0,1,1 with bond style fene (bond_fene.cpp:189)
Memory usage per processor = 18.891 Mbytes
Step sdpd_kin pTemp 
  364000 1.0283163e+09 1.0063626e+09 
  364100 1.0288811e+09 1.0070089e+09 
  364200 1.0232418e+09 1.0014765e+09 
  364300 1.0244454e+09 1.0028503e+09 
  364400 1.0283493e+09 1.0064235e+09 
  364500 1.0226145e+09 1.0009956e+09 
  364600 1.0304802e+09 1.0088933e+09 
  364700 1.0278744e+09 1.007167e+09 
  364800  1.03304e+09 1.0122579e+09 
  364900 1.0250399e+09 1.0043953e+09 
  365000 1.0232564e+09 1.0028703e+09 
Loop time of 695.733 on 6 procs for 1000 steps with 31755 atoms

Pair  time (%) = 611.32 (87.8671)
Bond  time (%) = 0.815628 (0.117233)
Neigh time (%) = 5.19391 (0.746539)
Comm  time (%) = 41.1146 (5.90955)
Outpt time (%) = 2.11421 (0.303883)
Other time (%) = 35.1744 (5.05573)

Nlocal:    5292.5 ave 5440 max 5045 min
Histogram: 1 0 0 0 0 2 0 1 1 1
Nghost:    7742.83 ave 8017 max 7548 min
Histogram: 2 0 1 0 0 1 1 0 0 1
Neighs:    303606 ave 322049 max 275073 min
Histogram: 1 0 0 0 1 1 0 0 2 1
FullNghs: 607211 ave 643648 max 550881 min
Histogram: 1 0 0 0 1 1 0 1 1 1

Total # of neighbors = 3643266
Ave neighs/atom = 114.73
Ave special neighs/atom = 5.09986
Neighbor list builds = 100
Dangerous builds = 100
velocity all zero linear
WARNING: Use special bonds = 0,1,1 with bond style fene (bond_fene.cpp:189)
Memory usage per processor = 18.891 Mbytes
Step sdpd_kin pTemp 
  365000 1.0232564e+09 1.0028703e+09 
  365100 1.0256721e+09 1.005243e+09 
  365200 1.0219054e+09 1.0010248e+09 
  365300 1.0213605e+09 1.0008266e+09 
  365400 1.028851e+09 1.0084626e+09 
  365500 1.024347e+09 1.0036644e+09 
  365600 1.0300831e+09 1.0087512e+09 
  365700 1.014728e+09 9.9342331e+08 
  365800 1.0256952e+09 1.0043098e+09 
  365900 1.0179019e+09 9.9688258e+08 
  366000 1.0256554e+09 1.0041243e+09 
Loop time of 711.743 on 6 procs for 1000 steps with 31755 atoms

Pair  time (%) = 617.355 (86.7385)
Bond  time (%) = 0.843801 (0.118554)
Neigh time (%) = 5.25632 (0.738514)
Comm  time (%) = 47.9702 (6.73981)
Outpt time (%) = 2.1209 (0.297986)
Other time (%) = 38.1968 (5.36666)

Nlocal:    5292.5 ave 5458 max 4939 min
Histogram: 1 0 0 0 0 0 2 1 0 2
Nghost:    7948.17 ave 8154 max 7779 min
Histogram: 1 1 1 0 0 0 2 0 0 1
Neighs:    303484 ave 324138 max 264696 min
Histogram: 1 0 0 0 0 1 2 0 0 2
FullNghs: 606967 ave 646643 max 531367 min
Histogram: 1 0 0 0 0 1 1 1 0 2

Total # of neighbors = 3641804
Ave neighs/atom = 114.684
Ave special neighs/atom = 5.09986
Neighbor list builds = 100
Dangerous builds = 100
velocity all zero linear
WARNING: Use special bonds = 0,1,1 with bond style fene (bond_fene.cpp:189)
Memory usage per processor = 18.891 Mbytes
Step sdpd_kin pTemp 
  366000 1.0256553e+09 1.0041243e+09 
  366100 1.0335197e+09 1.0123321e+09 
  366200 1.0313518e+09 1.010196e+09 
  366300 1.0224905e+09 1.0013641e+09 
  366400 1.0351271e+09 1.0141385e+09 
  366500 1.028075e+09 1.0073743e+09 
  366600 1.0289534e+09 1.0087361e+09 
  366700 1.0230042e+09 1.0028548e+09 
  366800 1.024075e+09 1.0037513e+09 
  366900 1.0265966e+09 1.0061313e+09 
  367000 1.028352e+09 1.0077506e+09 
Loop time of 705.088 on 6 procs for 1000 steps with 31755 atoms

Pair  time (%) = 607.547 (86.1661)
Bond  time (%) = 0.80809 (0.114608)
Neigh time (%) = 5.17733 (0.734282)
Comm  time (%) = 52.8857 (7.50058)
Outpt time (%) = 2.11622 (0.300136)
Other time (%) = 36.554 (5.18432)

Nlocal:    5292.5 ave 5491 max 5099 min
Histogram: 1 1 0 0 1 0 1 1 0 1
Nghost:    8000.67 ave 8430 max 7784 min
Histogram: 2 0 1 1 1 0 0 0 0 1
Neighs:    301849 ave 324026 max 277504 min
Histogram: 1 0 0 1 1 0 1 1 0 1
FullNghs: 603698 ave 647476 max 555948 min
Histogram: 1 0 0 1 1 0 1 1 0 1

Total # of neighbors = 3622188
Ave neighs/atom = 114.067
Ave special neighs/atom = 5.09986
Neighbor list builds = 100
Dangerous builds = 100
velocity all zero linear
WARNING: Use special bonds = 0,1,1 with bond style fene (bond_fene.cpp:189)
Memory usage per processor = 18.891 Mbytes
Step sdpd_kin pTemp 
  367000 1.0283519e+09 1.0077506e+09 
  367100 1.021215e+09 1.0008508e+09 
  367200 1.0222965e+09 1.002368e+09 
  367300 1.0294514e+09 1.009381e+09 
  367400 1.0149183e+09 9.953274e+08 
  367500 1.0219601e+09 1.0027732e+09 
  367600 1.0274446e+09 1.0080654e+09 
  367700 1.0295353e+09 1.0098073e+09 
  367800 1.0210675e+09 1.0016825e+09 
  367900 1.0218291e+09 1.0014523e+09 
  368000 1.0189324e+09 9.9850641e+08 
Loop time of 709.022 on 6 procs for 1000 steps with 31755 atoms

Pair  time (%) = 607.586 (85.6935)
Bond  time (%) = 0.805076 (0.113547)
Neigh time (%) = 5.19374 (0.732521)
Comm  time (%) = 57.0425 (8.04524)
Outpt time (%) = 2.10703 (0.297175)
Other time (%) = 36.2875 (5.11797)

Nlocal:    5292.5 ave 5614 max 5054 min
Histogram: 1 1 0 2 0 0 1 0 0 1
Nghost:    7899.67 ave 8277 max 7632 min
Histogram: 1 1 0 1 1 1 0 0 0 1
Neighs:    304017 ave 339498 max 279843 min
Histogram: 1 1 0 1 1 1 0 0 0 1
FullNghs: 608034 ave 678395 max 560362 min
Histogram: 1 1 0 1 1 1 0 0 0 1

Total # of neighbors = 3648202
Ave neighs/atom = 114.886
Ave special neighs/atom = 5.09986
Neighbor list builds = 100
Dangerous builds = 100
velocity all zero linear
WARNING: Use special bonds = 0,1,1 with bond style fene (bond_fene.cpp:189)
Memory usage per processor = 18.891 Mbytes
Step sdpd_kin pTemp 
  368000 1.0189323e+09 9.9850641e+08 
  368100 1.0254812e+09 1.0053876e+09 
  368200 1.0243592e+09 1.0044517e+09 
  368300 1.0319613e+09 1.0120898e+09 
  368400 1.0273794e+09 1.0075075e+09 
  368500 1.0240498e+09 1.0043822e+09 
  368600 1.0251522e+09 1.0049977e+09 
  368700 1.0189719e+09 9.9853927e+08 
  368800 1.024935e+09 1.0049805e+09 
  368900 1.0212862e+09 1.0007975e+09 
  369000 1.0209939e+09 1.0002628e+09 
Loop time of 720.325 on 6 procs for 1000 steps with 31755 atoms

Pair  time (%) = 607.388 (84.3213)
Bond  time (%) = 0.797051 (0.110652)
Neigh time (%) = 5.15224 (0.715266)
Comm  time (%) = 70.2428 (9.75155)
Outpt time (%) = 2.11013 (0.292942)
Other time (%) = 34.6354 (4.8083)

Nlocal:    5292.5 ave 5589 max 5006 min
Histogram: 1 0 0 0 2 2 0 0 0 1
Nghost:    7943.67 ave 8173 max 7737 min
Histogram: 1 0 1 0 2 0 0 1 0 1
Neighs:    303949 ave 335733 max 275813 min
Histogram: 1 0 0 1 2 1 0 0 0 1
FullNghs: 607898 ave 671317 max 551372 min
Histogram: 1 0 0 1 1 2 0 0 0 1

Total # of neighbors = 3647388
Ave neighs/atom = 114.86
Ave special neighs/atom = 5.09986
Neighbor list builds = 100
Dangerous builds = 100
velocity all zero linear
WARNING: Use special bonds = 0,1,1 with bond style fene (bond_fene.cpp:189)
Memory usage per processor = 18.891 Mbytes
Step sdpd_kin pTemp 
  369000 1.0209938e+09 1.0002628e+09 
  369100 1.0182938e+09 9.9771069e+08 
  369200 1.0167997e+09 9.9608723e+08 
  369300 1.0204583e+09 1.0002475e+09 
  369400 1.0201243e+09 1.0003482e+09 
  369500 1.0200233e+09 1.0002425e+09 
  369600 1.0282375e+09 1.0082244e+09 
  369700 1.0295378e+09 1.0094176e+09 
  369800 1.0243058e+09 1.0037828e+09 
  369900 1.0211294e+09 1.0011334e+09 
  370000 1.0157149e+09 9.9527973e+08 
Loop time of 707.929 on 6 procs for 1000 steps with 31755 atoms

Pair  time (%) = 606.404 (85.6588)
Bond  time (%) = 0.789793 (0.111564)
Neigh time (%) = 5.15278 (0.727866)
Comm  time (%) = 58.4606 (8.25797)
Outpt time (%) = 2.12669 (0.300409)
Other time (%) = 34.9956 (4.94338)

Nlocal:    5292.5 ave 5492 max 5071 min
Histogram: 1 0 0 0 2 0 2 0 0 1
Nghost:    7726.83 ave 7907 max 7485 min
Histogram: 1 0 0 0 2 0 0 2 0 1
Neighs:    303473 ave 325633 max 279411 min
Histogram: 1 0 0 0 2 1 1 0 0 1
FullNghs: 606945 ave 651661 max 560039 min
Histogram: 1 0 0 0 2 1 1 0 0 1

Total # of neighbors = 3641672
Ave neighs/atom = 114.68
Ave special neighs/atom = 5.09986
Neighbor list builds = 100
Dangerous builds = 99
velocity all zero linear
WARNING: Use special bonds = 0,1,1 with bond style fene (bond_fene.cpp:189)
Memory usage per processor = 18.891 Mbytes
Step sdpd_kin pTemp 
  370000 1.0157149e+09 9.9527973e+08 
  370100 1.0254007e+09 1.0049068e+09 
  370200 1.0225775e+09 1.0017947e+09 
  370300 1.0320012e+09 1.0113331e+09 
  370400 1.0195721e+09 9.9953496e+08 
  370500 1.0262911e+09 1.0060898e+09 
  370600 1.035388e+09 1.0152528e+09 
  370700 1.0198857e+09 9.9952193e+08 
  370800 1.0211342e+09 1.0012036e+09 
  370900 1.0287341e+09 1.0089937e+09 
  371000 1.0181913e+09 9.977207e+08 
Loop time of 681.179 on 6 procs for 1000 steps with 31755 atoms

Pair  time (%) = 602.757 (88.4874)
Bond  time (%) = 0.78164 (0.114748)
Neigh time (%) = 5.13556 (0.753922)
Comm  time (%) = 37.0181 (5.43441)
Outpt time (%) = 2.0915 (0.307041)
Other time (%) = 33.3949 (4.90252)

Nlocal:    5292.5 ave 5426 max 5152 min
Histogram: 1 0 0 1 1 1 1 0 0 1
Nghost:    7776.17 ave 7925 max 7558 min
Histogram: 1 0 1 0 1 0 0 0 1 2
Neighs:    302041 ave 315389 max 287459 min
Histogram: 1 0 0 1 0 2 0 1 0 1
FullNghs: 604081 ave 631362 max 572943 min
Histogram: 1 0 0 1 0 2 0 1 0 1

Total # of neighbors = 3624488
Ave neighs/atom = 114.139
Ave special neighs/atom = 5.09986
Neighbor list builds = 100
Dangerous builds = 100
velocity all zero linear
WARNING: Use special bonds = 0,1,1 with bond style fene (bond_fene.cpp:189)
Memory usage per processor = 18.891 Mbytes
Step sdpd_kin pTemp 
  371000 1.0181912e+09 9.977207e+08 
  371100 1.0161732e+09 9.9596011e+08 
  371200 1.0330148e+09 1.0125593e+09 
  371300 1.0210001e+09 1.0002919e+09 
  371400 1.0160988e+09 9.9583649e+08 
  371500 1.0216444e+09 1.0008035e+09 
  371600 1.0317844e+09 1.0110624e+09 
  371700 1.0183205e+09 9.971628e+08 
  371800 1.0128027e+09 9.9195046e+08 
  371900 1.0220332e+09 1.0015513e+09 
  372000 1.0159903e+09 9.9519292e+08 
Loop time of 669.544 on 6 procs for 1000 steps with 31755 atoms

Pair  time (%) = 600.502 (89.6881)
Bond  time (%) = 0.77615 (0.115922)
Neigh time (%) = 5.12486 (0.765426)
Comm  time (%) = 28.7308 (4.2911)
Outpt time (%) = 2.09893 (0.313486)
Other time (%) = 32.3119 (4.82595)

Nlocal:    5292.5 ave 5451 max 5051 min
Histogram: 1 0 0 1 0 1 0 0 1 2
Nghost:    7784.17 ave 7925 max 7705 min
Histogram: 1 0 2 2 0 0 0 0 0 1
Neighs:    302092 ave 320753 max 276926 min
Histogram: 1 0 1 0 1 0 0 0 2 1
FullNghs: 604183 ave 641800 max 553991 min
Histogram: 1 0 1 0 0 1 0 0 2 1

Total # of neighbors = 3625100
Ave neighs/atom = 114.158
Ave special neighs/atom = 5.09986
Neighbor list builds = 100
Dangerous builds = 100
velocity all zero linear
WARNING: Use special bonds = 0,1,1 with bond style fene (bond_fene.cpp:189)
Memory usage per processor = 18.891 Mbytes
Step sdpd_kin pTemp 
  372000 1.0159903e+09 9.9519292e+08 
  372100 1.0255533e+09 1.0055389e+09 
  372200 1.0242713e+09 1.0036169e+09 
  372300 1.0205317e+09 1.000482e+09 
  372400 1.0214745e+09 1.0008543e+09 
  372500 1.0239993e+09 1.0033308e+09 
  372600 1.0251642e+09 1.0046241e+09 
  372700 1.0196182e+09 9.9885738e+08 
  372800 1.0215029e+09 1.0003829e+09 
  372900 1.0267845e+09 1.0057106e+09 
  373000 1.0321003e+09 1.0108152e+09 
Loop time of 671.209 on 6 procs for 1000 steps with 31755 atoms

Pair  time (%) = 601.911 (89.6757)
Bond  time (%) = 0.780761 (0.116322)
Neigh time (%) = 5.13165 (0.764539)
Comm  time (%) = 27.5049 (4.09782)
Outpt time (%) = 2.10088 (0.312999)
Other time (%) = 33.7797 (5.03267)

Nlocal:    5292.5 ave 5324 max 5256 min
Histogram: 2 0 0 1 0 0 0 1 0 2
Nghost:    7700.17 ave 7906 max 7459 min
Histogram: 1 0 0 1 1 1 0 0 1 1
Neighs:    301570 ave 307958 max 295771 min
Histogram: 1 1 0 0 2 0 0 0 1 1
FullNghs: 603141 ave 615263 max 589535 min
Histogram: 1 0 1 0 1 1 0 0 1 1

Total # of neighbors = 3618846
Ave neighs/atom = 113.961
Ave special neighs/atom = 5.09986
Neighbor list builds = 100
Dangerous builds = 100
velocity all zero linear
WARNING: Use special bonds = 0,1,1 with bond style fene (bond_fene.cpp:189)
Memory usage per processor = 18.891 Mbytes
Step sdpd_kin pTemp 
  373000 1.0321002e+09 1.0108152e+09 
  373100 1.0158805e+09 9.9446007e+08 
  373200 1.0230102e+09 1.0015134e+09 
  373300 1.0288498e+09 1.0071637e+09 
  373400 1.0300086e+09 1.0083253e+09 
  373500 1.0262515e+09 1.0040133e+09 
  373600 1.0202059e+09 9.9814284e+08 
  373700 1.0327842e+09 1.0104635e+09 
  373800 1.0237517e+09 1.0010187e+09 
  373900 1.0222824e+09 9.9998773e+08 
  374000 1.0263115e+09 1.0039932e+09 
Loop time of 660.081 on 6 procs for 1000 steps with 31755 atoms

Pair  time (%) = 602.104 (91.2166)
Bond  time (%) = 0.772294 (0.117)
Neigh time (%) = 5.12783 (0.776848)
Comm  time (%) = 17.301 (2.62105)
Outpt time (%) = 2.10979 (0.319627)
Other time (%) = 32.6664 (4.94885)

Nlocal:    5292.5 ave 5374 max 5196 min
Histogram: 1 0 0 0 1 2 0 1 0 1
Nghost:    7590 ave 7832 max 7340 min
Histogram: 1 0 1 0 2 0 0 0 1 1
Neighs:    302519 ave 312948 max 295356 min
Histogram: 1 1 1 1 0 1 0 0 0 1
FullNghs: 605037 ave 625878 max 591841 min
Histogram: 1 1 1 1 0 0 1 0 0 1

Total # of neighbors = 3630224
Ave neighs/atom = 114.32
Ave special neighs/atom = 5.09986
Neighbor list builds = 100
Dangerous builds = 100
velocity all zero linear
WARNING: Use special bonds = 0,1,1 with bond style fene (bond_fene.cpp:189)
Memory usage per processor = 18.891 Mbytes
Step sdpd_kin pTemp 
  374000 1.0263115e+09 1.0039932e+09 
  374100 1.0318092e+09 1.0096381e+09 
  374200 1.0232053e+09 1.0004391e+09 
  374300 1.019417e+09 9.9684333e+08 
  374400 1.0201281e+09 9.9709942e+08 
  374500 1.0254765e+09 1.0025415e+09 
  374600 1.0264131e+09 1.0035383e+09 
  374700 1.035693e+09 1.0126119e+09 
  374800 1.0297821e+09 1.0067573e+09 
  374900 1.026222e+09 1.0035042e+09 
  375000 1.0235136e+09 1.0009484e+09 
Loop time of 661.953 on 6 procs for 1000 steps with 31755 atoms

Pair  time (%) = 600.84 (90.7677)
Bond  time (%) = 0.778105 (0.117547)
Neigh time (%) = 5.1314 (0.77519)
Comm  time (%) = 20.3834 (3.07929)
Outpt time (%) = 2.09986 (0.317221)
Other time (%) = 32.7209 (4.94308)

Nlocal:    5292.5 ave 5373 max 5188 min
Histogram: 1 0 1 0 0 0 2 1 0 1
Nghost:    7800.33 ave 8028 max 7525 min
Histogram: 1 0 0 0 2 0 1 1 0 1
Neighs:    301992 ave 312299 max 288075 min
Histogram: 1 0 0 1 1 0 0 1 0 2
FullNghs: 603984 ave 622157 max 576646 min
Histogram: 1 0 0 0 1 1 0 1 0 2

Total # of neighbors = 3623904
Ave neighs/atom = 114.121
Ave special neighs/atom = 5.09986
Neighbor list builds = 100
Dangerous builds = 100
velocity all zero linear
WARNING: Use special bonds = 0,1,1 with bond style fene (bond_fene.cpp:189)
Memory usage per processor = 18.891 Mbytes
Step sdpd_kin pTemp 
  375000 1.0235136e+09 1.0009484e+09 
  375100 1.0324619e+09 1.0094513e+09 
  375200 1.0317929e+09 1.0090103e+09 
  375300 1.0205264e+09 9.9748896e+08 
  375400 1.0226769e+09 9.999778e+08 
  375500 1.0311487e+09 1.007983e+09 
  375600 1.0388196e+09 1.0164747e+09 
  375700 1.0367795e+09 1.014429e+09 
  375800 1.0236229e+09 1.0013515e+09 
  375900 1.0255118e+09 1.0035921e+09 
  376000 1.0267927e+09 1.0043296e+09 
Loop time of 670.452 on 6 procs for 1000 steps with 31755 atoms

Pair  time (%) = 601.786 (89.7582)
Bond  time (%) = 0.776722 (0.115851)
Neigh time (%) = 5.14907 (0.767999)
Comm  time (%) = 26.627 (3.9715)
Outpt time (%) = 2.09931 (0.313118)
Other time (%) = 34.0143 (5.07334)

Nlocal:    5292.5 ave 5429 max 5180 min
Histogram: 1 1 0 0 1 1 1 0 0 1
Nghost:    7830 ave 7982 max 7716 min
Histogram: 2 0 0 1 1 0 0 1 0 1
Neighs:    301082 ave 315047 max 288806 min
Histogram: 1 1 0 1 0 0 2 0 0 1
FullNghs: 602163 ave 629155 max 577001 min
Histogram: 1 1 0 0 1 0 1 1 0 1

Total # of neighbors = 3612980
Ave neighs/atom = 113.777
Ave special neighs/atom = 5.09986
Neighbor list builds = 100
Dangerous builds = 100
velocity all zero linear
WARNING: Use special bonds = 0,1,1 with bond style fene (bond_fene.cpp:189)
Memory usage per processor = 18.891 Mbytes
Step sdpd_kin pTemp 
  376000 1.0267927e+09 1.0043296e+09 
  376100 1.0233944e+09 1.0013438e+09 
  376200 1.0250986e+09 1.003627e+09 
  376300 1.0281975e+09 1.0068713e+09 
  376400 1.0260335e+09 1.0045925e+09 
  376500 1.0222265e+09 1.0005599e+09 
  376600 1.0268949e+09 1.0052608e+09 
  376700 1.0326127e+09 1.0108956e+09 
  376800 1.0154446e+09 9.940383e+08 
  376900 1.0181273e+09 9.9646426e+08 
  377000 1.0193421e+09 9.9757079e+08 
Loop time of 662.788 on 6 procs for 1000 steps with 31755 atoms

Pair  time (%) = 599.753 (90.4894)
Bond  time (%) = 0.776742 (0.117193)
Neigh time (%) = 5.13284 (0.774431)
Comm  time (%) = 22.0659 (3.32925)
Outpt time (%) = 2.09937 (0.316748)
Other time (%) = 32.9603 (4.97298)

Nlocal:    5292.5 ave 5418 max 5206 min
Histogram: 2 1 0 0 0 1 0 1 0 1
Nghost:    7731.83 ave 7846 max 7546 min
Histogram: 1 0 0 0 0 0 2 2 0 1
Neighs:    300767 ave 312968 max 289478 min
Histogram: 1 1 0 0 1 0 2 0 0 1
FullNghs: 601534 ave 626812 max 578149 min
Histogram: 1 1 0 1 0 0 2 0 0 1

Total # of neighbors = 3609204
Ave neighs/atom = 113.658
Ave special neighs/atom = 5.09986
Neighbor list builds = 100
Dangerous builds = 100
velocity all zero linear
WARNING: Use special bonds = 0,1,1 with bond style fene (bond_fene.cpp:189)
Memory usage per processor = 18.891 Mbytes
Step sdpd_kin pTemp 
  377000 1.019342e+09 9.9757079e+08 
  377100 1.020239e+09 9.9821876e+08 
  377200 1.0318591e+09 1.0098969e+09 
  377300 1.0209815e+09 9.9862614e+08 
  377400 1.0206753e+09 9.9783953e+08 
  377500 1.0233608e+09 1.0006485e+09 
  377600 1.0264526e+09 1.0028529e+09 
  377700 1.0249446e+09 1.0016756e+09 
  377800 1.0235648e+09  1.00014e+09 
  377900 1.0216096e+09 9.9833888e+08 
  378000 1.0235907e+09 1.0001912e+09 
Loop time of 662.834 on 6 procs for 1000 steps with 31755 atoms

Pair  time (%) = 599.218 (90.4025)
Bond  time (%) = 0.778026 (0.117379)
Neigh time (%) = 5.15842 (0.778237)
Comm  time (%) = 22.5243 (3.39818)
Outpt time (%) = 2.0924 (0.315674)
Other time (%) = 33.0623 (4.98802)

Nlocal:    5292.5 ave 5397 max 5181 min
Histogram: 1 0 0 1 1 1 0 1 0 1
Nghost:    7692.33 ave 7819 max 7608 min
Histogram: 1 0 2 0 2 0 0 0 0 1
Neighs:    301155 ave 313222 max 289437 min
Histogram: 1 1 0 0 1 1 0 1 0 1
FullNghs: 602310 ave 625024 max 579652 min
Histogram: 1 0 1 0 1 1 0 1 0 1

Total # of neighbors = 3613862
Ave neighs/atom = 113.805
Ave special neighs/atom = 5.09986
Neighbor list builds = 100
Dangerous builds = 100
velocity all zero linear
WARNING: Use special bonds = 0,1,1 with bond style fene (bond_fene.cpp:189)
Memory usage per processor = 18.891 Mbytes
Step sdpd_kin pTemp 
  378000 1.0235907e+09 1.0001912e+09 
  378100 1.0350996e+09 1.0116752e+09 
  378200 1.0259841e+09 1.0025796e+09 
  378300 1.0289365e+09 1.0059597e+09 
  378400 1.0184343e+09 9.9533528e+08 
  378500 1.0298657e+09 1.0064607e+09 
  378600 1.0230737e+09 9.9968755e+08 
  378700 1.0285121e+09 1.0052338e+09 
  378800 1.028033e+09 1.0054036e+09 
  378900 1.0260751e+09 1.0033241e+09 
  379000 1.0238177e+09 1.0012906e+09 
Loop time of 657.008 on 6 procs for 1000 steps with 31755 atoms

Pair  time (%) = 599.284 (91.2141)
Bond  time (%) = 0.790446 (0.12031)
Neigh time (%) = 5.16156 (0.785617)
Comm  time (%) = 16.4762 (2.50777)
Outpt time (%) = 2.09582 (0.318995)
Other time (%) = 33.2003 (5.05325)

Nlocal:    5292.5 ave 5388 max 5194 min
Histogram: 1 0 0 1 1 1 1 0 0 1
Nghost:    7844.5 ave 8111 max 7608 min
Histogram: 1 0 0 1 2 1 0 0 0 1
Neighs:    301546 ave 311283 max 292718 min
Histogram: 1 0 0 1 1 2 0 0 0 1
FullNghs: 603092 ave 622130 max 587296 min
Histogram: 1 0 0 1 3 0 0 0 0 1

Total # of neighbors = 3618552
Ave neighs/atom = 113.952
Ave special neighs/atom = 5.09986
Neighbor list builds = 100
Dangerous builds = 100
velocity all zero linear
WARNING: Use special bonds = 0,1,1 with bond style fene (bond_fene.cpp:189)
Memory usage per processor = 18.1281 Mbytes
Step sdpd_kin pTemp 
  379000 1.0238177e+09 1.0012906e+09 
  379100 1.0227238e+09 9.9969391e+08 
  379200 1.0214275e+09 9.9853527e+08 
  379300 1.0229495e+09 9.9999463e+08 
  379400 1.0260302e+09 1.0027408e+09 
  379500 1.0247526e+09 1.0014358e+09 
  379600 1.0285999e+09 1.0053573e+09 
  379700 1.0206666e+09 9.966244e+08 
  379800 1.0304644e+09 1.0066346e+09 
  379900 1.0275087e+09 1.0037184e+09 
  380000 1.0250884e+09 1.0008472e+09 
Loop time of 669.98 on 6 procs for 1000 steps with 31755 atoms

Pair  time (%) = 599.975 (89.5511)
Bond  time (%) = 0.774672 (0.115626)
Neigh time (%) = 5.16439 (0.770827)
Comm  time (%) = 26.4067 (3.94141)
Outpt time (%) = 2.12471 (0.317131)
Other time (%) = 35.535 (5.30389)

Nlocal:    5292.5 ave 5480 max 5180 min
Histogram: 2 1 1 0 0 0 0 0 1 1
Nghost:    7751.17 ave 7900 max 7548 min
Histogram: 1 0 0 0 2 0 0 1 1 1
Neighs:    301476 ave 320163 max 289535 min
Histogram: 2 1 1 0 0 0 0 0 1 1
FullNghs: 602952 ave 641745 max 579708 min
Histogram: 2 1 1 0 0 0 0 0 1 1

Total # of neighbors = 3617710
Ave neighs/atom = 113.926
Ave special neighs/atom = 5.09986
Neighbor list builds = 100
Dangerous builds = 99
velocity all zero linear
WARNING: Use special bonds = 0,1,1 with bond style fene (bond_fene.cpp:189)
Memory usage per processor = 18.1281 Mbytes
Step sdpd_kin pTemp 
  380000 1.025088e+09 1.0008472e+09 
  380100 1.0291107e+09 1.0054418e+09 
  380200 1.0286573e+09 1.0046419e+09 
  380300 1.0238057e+09 1.0001314e+09 
  380400 1.025337e+09 1.0019892e+09 
  380500 1.0299525e+09 1.0067143e+09 
  380600 1.0240473e+09 1.000867e+09 
  380700 1.0306326e+09 1.0074385e+09 
  380800 1.0215895e+09 9.9802701e+08 
  380900 1.0231026e+09 9.9985944e+08 
  381000 1.0202661e+09 9.9684662e+08 
Loop time of 681.408 on 6 procs for 1000 steps with 31755 atoms

Pair  time (%) = 600.316 (88.0993)
Bond  time (%) = 0.771601 (0.113236)
Neigh time (%) = 5.13076 (0.752965)
Comm  time (%) = 40.7117 (5.97465)
Outpt time (%) = 2.11081 (0.309772)
Other time (%) = 32.3671 (4.75003)

Nlocal:    5292.5 ave 5405 max 5128 min
Histogram: 1 0 0 0 1 1 1 0 1 1
Nghost:    7769.17 ave 7937 max 7670 min
Histogram: 2 0 1 1 0 1 0 0 0 1
Neighs:    301021 ave 312429 max 281585 min
Histogram: 1 0 0 0 1 0 0 2 0 2
FullNghs: 602042 ave 625993 max 562302 min
Histogram: 1 0 0 0 1 0 1 1 1 1

Total # of neighbors = 3612252
Ave neighs/atom = 113.754
Ave special neighs/atom = 5.09986
Neighbor list builds = 100
Dangerous builds = 100
velocity all zero linear
WARNING: Use special bonds = 0,1,1 with bond style fene (bond_fene.cpp:189)
Memory usage per processor = 18.891 Mbytes
Step sdpd_kin pTemp 
  381000 1.0202658e+09 9.9684662e+08 
  381100 1.0278401e+09 1.0048882e+09 
  381200 1.026143e+09 1.0030055e+09 
  381300 1.0281035e+09 1.0041531e+09 
  381400 1.0240011e+09 9.9997802e+08 
  381500 1.0222419e+09 9.9904081e+08 
  381600 1.0233603e+09 9.9988029e+08 
  381700 1.0363635e+09 1.0128452e+09 
  381800 1.0288547e+09 1.0051001e+09 
  381900 1.0216813e+09 9.9860208e+08 
  382000 1.0251892e+09 1.0021232e+09 
Loop time of 667.049 on 6 procs for 1000 steps with 31755 atoms

Pair  time (%) = 599.174 (89.8246)
Bond  time (%) = 0.773892 (0.116017)
Neigh time (%) = 5.1372 (0.770139)
Comm  time (%) = 27.3658 (4.10251)
Outpt time (%) = 2.12023 (0.317852)
Other time (%) = 32.4778 (4.86888)

Nlocal:    5292.5 ave 5432 max 5197 min
Histogram: 1 1 1 0 0 2 0 0 0 1
Nghost:    7645.83 ave 7813 max 7492 min
Histogram: 1 1 1 0 0 0 1 0 1 1
Neighs:    301231 ave 318504 max 296235 min
Histogram: 4 0 1 0 0 0 0 0 0 1
FullNghs: 602462 ave 633463 max 591844 min
Histogram: 2 2 1 0 0 0 0 0 0 1

Total # of neighbors = 3614772
Ave neighs/atom = 113.833
Ave special neighs/atom = 5.09986
Neighbor list builds = 100
Dangerous builds = 100
velocity all zero linear
WARNING: Use special bonds = 0,1,1 with bond style fene (bond_fene.cpp:189)
Memory usage per processor = 18.891 Mbytes
Step sdpd_kin pTemp 
  382000 1.025189e+09 1.0021232e+09 
  382100 1.0309186e+09 1.0077663e+09 
  382200 1.0187377e+09 9.9558239e+08 
  382300 1.025743e+09 1.002642e+09 
  382400 1.0164839e+09 9.9298365e+08 
  382500 1.0191141e+09 9.9616976e+08 
  382600 1.0188188e+09 9.9602045e+08 
  382700 1.0225488e+09 1.0001022e+09 
  382800 1.0214385e+09 9.9880012e+08 
  382900 1.0325201e+09 1.0096875e+09 
  383000 1.0310137e+09 1.0087361e+09 
Loop time of 683.925 on 6 procs for 1000 steps with 31755 atoms

Pair  time (%) = 600.169 (87.7536)
Bond  time (%) = 0.782263 (0.114378)
Neigh time (%) = 5.14035 (0.751595)
Comm  time (%) = 42.0088 (6.1423)
Outpt time (%) = 2.10549 (0.307853)
Other time (%) = 33.7193 (4.93026)

Nlocal:    5292.5 ave 5493 max 5188 min
Histogram: 1 1 2 1 0 0 0 0 0 1
Nghost:    7784.17 ave 8022 max 7516 min
Histogram: 1 0 0 1 1 1 0 0 1 1
Neighs:    301534 ave 327667 max 286850 min
Histogram: 2 0 0 3 0 0 0 0 0 1
FullNghs: 603067 ave 653942 max 574791 min
Histogram: 2 0 0 3 0 0 0 0 0 1

Total # of neighbors = 3618404
Ave neighs/atom = 113.948
Ave special neighs/atom = 5.09986
Neighbor list builds = 100
Dangerous builds = 100
velocity all zero linear
WARNING: Use special bonds = 0,1,1 with bond style fene (bond_fene.cpp:189)
Memory usage per processor = 18.891 Mbytes
Step sdpd_kin pTemp 
  383000 1.0310135e+09 1.0087361e+09 
  383100 1.0210375e+09  9.98488e+08 
  383200 1.0271633e+09 1.0047945e+09 
  383300 1.0256335e+09 1.0035057e+09 
  383400 1.0243316e+09 1.0020305e+09 
  383500 1.0271146e+09 1.0047253e+09 
  383600 1.0257231e+09 1.0028773e+09 
  383700 1.0282589e+09 1.0055237e+09 
  383800 1.0316097e+09 1.0088502e+09 
  383900 1.0291458e+09 1.0062612e+09 
  384000 1.0216203e+09 9.9946754e+08 
Loop time of 692.619 on 6 procs for 1000 steps with 31755 atoms

Pair  time (%) = 599.878 (86.6102)
Bond  time (%) = 0.768644 (0.110976)
Neigh time (%) = 5.14031 (0.742156)
Comm  time (%) = 50.3773 (7.27345)
Outpt time (%) = 2.12258 (0.306457)
Other time (%) = 34.3317 (4.95679)

Nlocal:    5292.5 ave 5539 max 5043 min
Histogram: 1 0 0 1 1 1 0 1 0 1
Nghost:    7711.5 ave 7922 max 7480 min
Histogram: 1 0 0 1 1 1 0 1 0 1
Neighs:    302072 ave 331755 max 272908 min
Histogram: 1 0 0 1 1 2 0 0 0 1
FullNghs: 604144 ave 662686 max 546699 min
Histogram: 1 0 0 1 1 1 1 0 0 1

Total # of neighbors = 3624866
Ave neighs/atom = 114.151
Ave special neighs/atom = 5.09986
Neighbor list builds = 100
Dangerous builds = 100
velocity all zero linear
WARNING: Use special bonds = 0,1,1 with bond style fene (bond_fene.cpp:189)
Memory usage per processor = 18.891 Mbytes
Step sdpd_kin pTemp 
  384000 1.0216201e+09 9.9946754e+08 
  384100 1.0218365e+09 9.9924699e+08 
  384200 1.0272394e+09 1.0051321e+09 
  384300 1.0223419e+09 1.0000458e+09 
  384400 1.0296316e+09 1.0077521e+09 
  384500 1.0244725e+09 1.0026748e+09 
  384600  1.02897e+09 1.006637e+09 
  384700 1.0290142e+09 1.0070607e+09 
  384800 1.0274541e+09 1.0053348e+09 
  384900 1.0166486e+09 9.946539e+08 
  385000 1.0315716e+09 1.0097796e+09 
Loop time of 706.586 on 6 procs for 1000 steps with 31755 atoms

Pair  time (%) = 604.136 (85.5007)
Bond  time (%) = 0.763401 (0.108041)
Neigh time (%) = 5.09614 (0.721234)
Comm  time (%) = 60.0472 (8.49821)
Outpt time (%) = 2.1121 (0.298916)
Other time (%) = 34.4314 (4.87292)

Nlocal:    5292.5 ave 5555 max 5003 min
Histogram: 1 0 0 1 2 0 0 0 0 2
Nghost:    7777.33 ave 7917 max 7632 min
Histogram: 1 1 0 0 1 1 0 0 1 1
Neighs:    303207 ave 330938 max 278577 min
Histogram: 1 1 0 2 0 0 0 0 0 2
FullNghs: 606414 ave 661271 max 558382 min
Histogram: 1 1 0 2 0 0 0 0 0 2

Total # of neighbors = 3638486
Ave neighs/atom = 114.58
Ave special neighs/atom = 5.09986
Neighbor list builds = 100
Dangerous builds = 100
velocity all zero linear
WARNING: Use special bonds = 0,1,1 with bond style fene (bond_fene.cpp:189)
Memory usage per processor = 18.891 Mbytes
Step sdpd_kin pTemp 
  385000 1.0315715e+09 1.0097796e+09 
  385100 1.0254754e+09 1.0037181e+09 
  385200 1.0250274e+09 1.0029837e+09 
  385300 1.022328e+09 1.0005337e+09 
  385400 1.0260745e+09 1.004108e+09 
  385500 1.0201119e+09 9.9862946e+08 
  385600 1.0281699e+09 1.0063763e+09 
  385700 1.0332075e+09 1.0113545e+09 
  385800 1.0266218e+09 1.0047985e+09 
  385900 1.0310098e+09 1.0095635e+09 
  386000 1.023598e+09  1.00183e+09 
Loop time of 697.354 on 6 procs for 1000 steps with 31755 atoms

Pair  time (%) = 603.116 (86.4864)
Bond  time (%) = 0.768068 (0.11014)
Neigh time (%) = 5.11393 (0.733334)
Comm  time (%) = 52.107 (7.4721)
Outpt time (%) = 2.10631 (0.302043)
Other time (%) = 34.1423 (4.89598)

Nlocal:    5292.5 ave 5584 max 5036 min
Histogram: 1 1 0 1 1 0 0 1 0 1
Nghost:    7876.67 ave 8047 max 7726 min
Histogram: 2 0 0 0 1 1 0 1 0 1
Neighs:    303251 ave 332142 max 279222 min
Histogram: 1 1 0 1 1 0 0 0 1 1
FullNghs: 606502 ave 662737 max 558055 min
Histogram: 1 1 0 1 1 0 0 0 1 1

Total # of neighbors = 3639014
Ave neighs/atom = 114.597
Ave special neighs/atom = 5.09986
Neighbor list builds = 100
Dangerous builds = 100
velocity all zero linear
WARNING: Use special bonds = 0,1,1 with bond style fene (bond_fene.cpp:189)
Memory usage per processor = 18.891 Mbytes
Step sdpd_kin pTemp 
  386000 1.023598e+09  1.00183e+09 
  386100 1.0227313e+09  1.00084e+09 
  386200 1.0245294e+09 1.0023244e+09 
  386300 1.0280369e+09 1.0056468e+09 
  386400 1.027006e+09 1.0046847e+09 
  386500 1.022047e+09 9.9973425e+08 
  386600 1.0212836e+09 9.9876313e+08 
  386700 1.0225155e+09 9.9956857e+08 
  386800 1.0242332e+09 1.0016311e+09 
  386900 1.0298808e+09 1.0075334e+09 
  387000 1.0269375e+09 1.0042029e+09 
Loop time of 694.907 on 6 procs for 1000 steps with 31755 atoms

Pair  time (%) = 604.994 (87.0611)
Bond  time (%) = 0.790452 (0.113749)
Neigh time (%) = 5.14748 (0.740743)
Comm  time (%) = 47.0452 (6.77)
Outpt time (%) = 2.09968 (0.302152)
Other time (%) = 34.8306 (5.01227)

Nlocal:    5292.5 ave 5479 max 4916 min
Histogram: 1 0 0 0 0 0 1 2 1 1
Nghost:    7862.17 ave 7938 max 7767 min
Histogram: 1 0 1 0 1 1 0 0 0 2
Neighs:    303096 ave 322633 max 272167 min
Histogram: 1 0 0 0 0 1 1 2 0 1
FullNghs: 606191 ave 644993 max 542867 min
Histogram: 1 0 0 0 0 1 1 2 0 1

Total # of neighbors = 3637148
Ave neighs/atom = 114.538
Ave special neighs/atom = 5.09986
Neighbor list builds = 100
Dangerous builds = 100
velocity all zero linear
WARNING: Use special bonds = 0,1,1 with bond style fene (bond_fene.cpp:189)
Memory usage per processor = 18.891 Mbytes
Step sdpd_kin pTemp 
  387000 1.0269374e+09 1.0042029e+09 
  387100 1.0287876e+09 1.0060663e+09 
  387200 1.0261453e+09 1.004017e+09 
  387300 1.0199108e+09 9.9809711e+08 
  387400 1.0220788e+09 1.0004156e+09 
  387500 1.0284889e+09 1.0066377e+09 
  387600 1.0348018e+09 1.0124157e+09 
  387700 1.0218146e+09 9.9971913e+08 
  387800  1.02069e+09 9.9902764e+08 
  387900 1.0213922e+09 9.9937403e+08 
  388000 1.0293831e+09 1.0074159e+09 
Loop time of 679.183 on 6 procs for 1000 steps with 31755 atoms

Pair  time (%) = 603.797 (88.9005)
Bond  time (%) = 0.773136 (0.113833)
Neigh time (%) = 5.13861 (0.756587)
Comm  time (%) = 32.2268 (4.74494)
Outpt time (%) = 2.11966 (0.31209)
Other time (%) = 35.1278 (5.17207)

Nlocal:    5292.5 ave 5474 max 5066 min
Histogram: 1 1 0 0 0 1 0 0 2 1
Nghost:    7748.5 ave 7896 max 7520 min
Histogram: 1 1 0 0 0 0 0 1 2 1
Neighs:    303118 ave 317624 max 279747 min
Histogram: 1 0 1 0 0 1 0 0 0 3
FullNghs: 606235 ave 635346 max 558840 min
Histogram: 1 0 1 0 0 0 1 0 0 3

Total # of neighbors = 3637410
Ave neighs/atom = 114.546
Ave special neighs/atom = 5.09986
Neighbor list builds = 100
Dangerous builds = 100
velocity all zero linear
WARNING: Use special bonds = 0,1,1 with bond style fene (bond_fene.cpp:189)
Memory usage per processor = 18.1281 Mbytes
Step sdpd_kin pTemp 
  388000 1.029383e+09 1.0074159e+09 
  388100 1.0273014e+09 1.0060622e+09 
  388200 1.0226986e+09 1.0009113e+09 
  388300 1.0277778e+09 1.0060855e+09 
  388400 1.0216851e+09 1.0003244e+09 
  388500 1.0284751e+09 1.0069573e+09 
  388600 1.0199959e+09 9.9840516e+08 
  388700 1.0264831e+09 1.0051398e+09 
  388800 1.0264012e+09 1.0048679e+09 
  388900 1.026982e+09 1.0052956e+09 
  389000 1.0276191e+09 1.0054986e+09 
Loop time of 675.798 on 6 procs for 1000 steps with 31755 atoms

Pair  time (%) = 602.607 (89.1697)
Bond  time (%) = 0.775506 (0.114754)
Neigh time (%) = 5.1212 (0.757801)
Comm  time (%) = 31.8711 (4.71607)
Outpt time (%) = 2.11803 (0.313411)
Other time (%) = 33.3052 (4.92828)

Nlocal:    5292.5 ave 5468 max 5104 min
Histogram: 1 0 0 2 0 1 0 0 1 1
Nghost:    7814.83 ave 7963 max 7560 min
Histogram: 1 0 0 1 0 0 0 1 2 1
Neighs:    302527 ave 319747 max 282586 min
Histogram: 1 0 0 2 0 0 1 0 1 1
FullNghs: 605054 ave 636675 max 565608 min
Histogram: 1 0 0 2 0 0 1 0 1 1

Total # of neighbors = 3630322
Ave neighs/atom = 114.323
Ave special neighs/atom = 5.09986
Neighbor list builds = 100
Dangerous builds = 100
velocity all zero linear
WARNING: Use special bonds = 0,1,1 with bond style fene (bond_fene.cpp:189)
Memory usage per processor = 18.891 Mbytes
Step sdpd_kin pTemp 
  389000 1.027619e+09 1.0054986e+09 
  389100 1.0303216e+09 1.0081781e+09 
  389200 1.0249139e+09 1.0028792e+09 
  389300 1.0280773e+09 1.0059982e+09 
  389400 1.0204866e+09 9.9868294e+08 
  389500 1.0241259e+09 1.0019224e+09 
  389600 1.0313998e+09 1.0097475e+09 
  389700 1.0242714e+09 1.0023099e+09 
  389800 1.0165296e+09 9.9461497e+08 
  389900 1.0178028e+09 9.9569619e+08 
  390000 1.0245942e+09 1.0024518e+09 
Loop time of 677.659 on 6 procs for 1000 steps with 31755 atoms

Pair  time (%) = 603.795 (89.1)
Bond  time (%) = 0.776476 (0.114582)
Neigh time (%) = 5.14607 (0.759389)
Comm  time (%) = 31.4233 (4.63703)
Outpt time (%) = 2.15217 (0.317588)
Other time (%) = 34.3667 (5.07138)

Nlocal:    5292.5 ave 5476 max 5128 min
Histogram: 1 0 0 1 2 0 1 0 0 1
Nghost:    7860.17 ave 7950 max 7724 min
Histogram: 1 0 0 1 0 0 2 0 0 2
Neighs:    303128 ave 323404 max 284752 min
Histogram: 1 0 1 0 1 1 1 0 0 1
FullNghs: 606255 ave 647279 max 570776 min
Histogram: 1 0 1 0 1 1 1 0 0 1

Total # of neighbors = 3637530
Ave neighs/atom = 114.55
Ave special neighs/atom = 5.09986
Neighbor list builds = 100
Dangerous builds = 99
velocity all zero linear
WARNING: Use special bonds = 0,1,1 with bond style fene (bond_fene.cpp:189)
Memory usage per processor = 18.891 Mbytes
Step sdpd_kin pTemp 
  390000 1.0245942e+09 1.0024518e+09 
  390100 1.0279884e+09 1.0061675e+09 
  390200 1.0133642e+09 9.9173183e+08 
  390300 1.0328676e+09 1.0109608e+09 
  390400 1.0249767e+09 1.0033919e+09 
  390500 1.0199713e+09 9.9791183e+08 
  390600 1.0167193e+09 9.9517185e+08 
  390700 1.0178313e+09 9.9653861e+08 
  390800 1.0258889e+09 1.004719e+09 
  390900 1.0273135e+09 1.0060764e+09 
  391000 1.0179693e+09 9.9654605e+08 
Loop time of 679.495 on 6 procs for 1000 steps with 31755 atoms

Pair  time (%) = 604.38 (88.9455)
Bond  time (%) = 0.781666 (0.115036)
Neigh time (%) = 5.15755 (0.759027)
Comm  time (%) = 33.8299 (4.97868)
Outpt time (%) = 2.13843 (0.314709)
Other time (%) = 33.2072 (4.88705)

Nlocal:    5292.5 ave 5462 max 5076 min
Histogram: 1 0 1 1 0 0 0 1 0 2
Nghost:    7781.5 ave 7846 max 7714 min
Histogram: 1 0 1 0 2 0 0 0 1 1
Neighs:    303255 ave 320666 max 283852 min
Histogram: 1 0 2 0 0 0 0 1 0 2
FullNghs: 606510 ave 639623 max 567506 min
Histogram: 1 0 2 0 0 0 0 0 1 2

Total # of neighbors = 3639058
Ave neighs/atom = 114.598
Ave special neighs/atom = 5.09986
Neighbor list builds = 100
Dangerous builds = 100
velocity all zero linear
WARNING: Use special bonds = 0,1,1 with bond style fene (bond_fene.cpp:189)
Memory usage per processor = 18.1281 Mbytes
Step sdpd_kin pTemp 
  391000 1.0179693e+09 9.9654605e+08 
  391100 1.0254605e+09 1.0040743e+09 
  391200 1.0225739e+09 1.0008095e+09 
  391300 1.0260854e+09 1.0042179e+09 
  391400 1.0214836e+09 9.9964061e+08 
  391500 1.022843e+09 1.0007864e+09 
  391600 1.0255311e+09 1.0032698e+09 
  391700 1.0218123e+09 9.9970045e+08 
  391800 1.0214139e+09 9.9982639e+08 
  391900 1.0248722e+09 1.0031727e+09 
  392000 1.0223137e+09 1.0010101e+09 
Loop time of 681.802 on 6 procs for 1000 steps with 31755 atoms

Pair  time (%) = 603.546 (88.5221)
Bond  time (%) = 0.773345 (0.113427)
Neigh time (%) = 5.13869 (0.753692)
Comm  time (%) = 35.5583 (5.21534)
Outpt time (%) = 2.14218 (0.314194)
Other time (%) = 34.6442 (5.08126)

Nlocal:    5292.5 ave 5494 max 5050 min
Histogram: 1 0 1 1 0 0 0 0 2 1
Nghost:    7755.5 ave 7924 max 7664 min
Histogram: 2 0 1 1 1 0 0 0 0 1
Neighs:    303677 ave 324257 max 280111 min
Histogram: 1 0 2 0 0 0 0 0 2 1
FullNghs: 607354 ave 649348 max 561038 min
Histogram: 1 0 2 0 0 0 0 0 2 1

Total # of neighbors = 3644122
Ave neighs/atom = 114.757
Ave special neighs/atom = 5.09986
Neighbor list builds = 100
Dangerous builds = 100
velocity all zero linear
WARNING: Use special bonds = 0,1,1 with bond style fene (bond_fene.cpp:189)
Memory usage per processor = 18.1281 Mbytes
Step sdpd_kin pTemp 
  392000 1.0223135e+09 1.0010101e+09 
  392100 1.0293896e+09 1.007422e+09 
  392200 1.024623e+09 1.0030367e+09 
  392300 1.022086e+09 1.0000213e+09 
  392400 1.0245179e+09 1.0021401e+09 
  392500 1.024307e+09 1.0020267e+09 
  392600 1.0233732e+09 1.0006499e+09 
  392700 1.0261374e+09 1.0045297e+09 
  392800 1.0261079e+09 1.0037776e+09 
  392900 1.0220673e+09 9.9967581e+08 
  393000 1.0273076e+09 1.0052328e+09 
Loop time of 678.99 on 6 procs for 1000 steps with 31755 atoms

Pair  time (%) = 603.825 (88.9298)
Bond  time (%) = 0.778276 (0.114623)
Neigh time (%) = 5.15286 (0.7589)
Comm  time (%) = 33.4523 (4.92677)
Outpt time (%) = 2.12269 (0.312625)
Other time (%) = 33.6595 (4.95729)

Nlocal:    5292.5 ave 5437 max 5117 min
Histogram: 1 0 0 0 1 1 2 0 0 1
Nghost:    7874 ave 7941 max 7714 min
Histogram: 1 0 0 0 1 0 0 1 0 3
Neighs:    302703 ave 315303 max 285378 min
Histogram: 1 0 0 1 0 1 0 2 0 1
FullNghs: 605406 ave 630831 max 571020 min
Histogram: 1 0 0 1 0 1 0 2 0 1

Total # of neighbors = 3632434
Ave neighs/atom = 114.389
Ave special neighs/atom = 5.09986
Neighbor list builds = 100
Dangerous builds = 100
velocity all zero linear
WARNING: Use special bonds = 0,1,1 with bond style fene (bond_fene.cpp:189)
Memory usage per processor = 18.891 Mbytes
Step sdpd_kin pTemp 
  393000 1.0273075e+09 1.0052328e+09 
  393100 1.0211576e+09 9.9936768e+08 
  393200 1.0292744e+09 1.0074947e+09 
  393300 1.0153741e+09 9.931358e+08 
  393400 1.0227514e+09 1.0006925e+09 
  393500 1.0219465e+09 1.0001897e+09 
  393600 1.0287772e+09 1.0068816e+09 
  393700 1.0273409e+09 1.0059024e+09 
  393800 1.0243071e+09 1.0023364e+09 
  393900 1.0241419e+09 1.0019538e+09 
  394000 1.0237638e+09 1.001073e+09 
Loop time of 666.437 on 6 procs for 1000 steps with 31755 atoms

Pair  time (%) = 601.241 (90.2172)
Bond  time (%) = 0.784859 (0.117769)
Neigh time (%) = 5.14431 (0.771912)
Comm  time (%) = 23.7524 (3.56408)
Outpt time (%) = 2.12391 (0.318696)
Other time (%) = 33.3911 (5.01039)

Nlocal:    5292.5 ave 5407 max 5090 min
Histogram: 1 0 0 0 0 2 0 1 0 2
Nghost:    7860 ave 8006 max 7736 min
Histogram: 2 0 1 0 0 0 0 2 0 1
Neighs:    302138 ave 314337 max 280762 min
Histogram: 1 0 0 0 0 0 2 1 1 1
FullNghs: 604275 ave 629443 max 560653 min
Histogram: 1 0 0 0 0 0 2 1 1 1

Total # of neighbors = 3625652
Ave neighs/atom = 114.176
Ave special neighs/atom = 5.09986
Neighbor list builds = 100
Dangerous builds = 100
velocity all zero linear
WARNING: Use special bonds = 0,1,1 with bond style fene (bond_fene.cpp:189)
Memory usage per processor = 18.891 Mbytes
Step sdpd_kin pTemp 
  394000 1.0237637e+09 1.001073e+09 
  394100 1.0235749e+09 1.0016016e+09 
  394200 1.0257511e+09 1.0038044e+09 
  394300 1.0333857e+09 1.011606e+09 
  394400 1.0222311e+09 1.0002959e+09 
  394500 1.0209004e+09 9.9892906e+08 
  394600 1.0236662e+09 1.0019715e+09 
  394700 1.0203428e+09 9.9907763e+08 
  394800 1.0387383e+09 1.0173584e+09 
  394900 1.0293029e+09 1.0075931e+09 
  395000 1.0315588e+09 1.010237e+09 
Loop time of 669.181 on 6 procs for 1000 steps with 31755 atoms

Pair  time (%) = 601.588 (89.8991)
Bond  time (%) = 0.780555 (0.116643)
Neigh time (%) = 5.13942 (0.768017)
Comm  time (%) = 26.1222 (3.90361)
Outpt time (%) = 2.1611 (0.322946)
Other time (%) = 33.3898 (4.98965)

Nlocal:    5292.5 ave 5346 max 5168 min
Histogram: 1 0 0 0 1 0 0 1 0 3
Nghost:    7889.83 ave 8113 max 7683 min
Histogram: 1 1 0 0 0 2 1 0 0 1
Neighs:    301788 ave 308994 max 285988 min
Histogram: 1 0 0 0 1 0 0 0 1 3
FullNghs: 603576 ave 616932 max 571873 min
Histogram: 1 0 0 0 1 0 0 0 1 3

Total # of neighbors = 3621456
Ave neighs/atom = 114.044
Ave special neighs/atom = 5.09986
Neighbor list builds = 100
Dangerous builds = 100
velocity all zero linear
WARNING: Use special bonds = 0,1,1 with bond style fene (bond_fene.cpp:189)
Memory usage per processor = 18.891 Mbytes
Step sdpd_kin pTemp 
  395000 1.0315588e+09 1.010237e+09 
  395100 1.0236373e+09 1.0021348e+09 
  395200 1.0249842e+09 1.0034455e+09 
  395300 1.0197602e+09 9.9838148e+08 
  395400 1.0273993e+09 1.0066521e+09 
  395500 1.0325041e+09 1.0118717e+09 
  395600 1.0264056e+09 1.0059957e+09 
  395700 1.0166764e+09 9.9651724e+08 
  395800 1.0282992e+09 1.0072173e+09 
  395900 1.0209314e+09 9.9975967e+08 
  396000 1.0236806e+09 1.0026161e+09 
Loop time of 663.537 on 6 procs for 1000 steps with 31755 atoms

Pair  time (%) = 599.477 (90.3456)
Bond  time (%) = 0.78007 (0.117562)
Neigh time (%) = 5.13668 (0.774135)
Comm  time (%) = 22.4357 (3.38123)
Outpt time (%) = 2.11939 (0.319408)
Other time (%) = 33.5887 (5.06207)

Nlocal:    5292.5 ave 5423 max 5155 min
Histogram: 1 0 1 0 0 2 0 1 0 1
Nghost:    7844.83 ave 8020 max 7688 min
Histogram: 2 1 0 0 0 0 1 0 0 2
Neighs:    301198 ave 314067 max 284393 min
Histogram: 1 0 0 1 0 0 1 2 0 1
FullNghs: 602395 ave 629404 max 568162 min
Histogram: 1 0 1 0 0 0 1 2 0 1

Total # of neighbors = 3614372
Ave neighs/atom = 113.821
Ave special neighs/atom = 5.09986
Neighbor list builds = 100
Dangerous builds = 100
velocity all zero linear
WARNING: Use special bonds = 0,1,1 with bond style fene (bond_fene.cpp:189)
Memory usage per processor = 18.891 Mbytes
Step sdpd_kin pTemp 
  396000 1.0236805e+09 1.0026161e+09 
  396100 1.0212651e+09 1.0004086e+09 
  396200 1.0313673e+09 1.0101733e+09 
  396300 1.0299713e+09 1.0089081e+09 
  396400 1.0227307e+09 1.0015177e+09 
  396500 1.0231237e+09 1.0023164e+09 
  396600 1.0257827e+09 1.004374e+09 
  396700 1.0229849e+09 1.0014945e+09 
  396800 1.0329086e+09 1.0118427e+09 
  396900 1.0158776e+09 9.9495895e+08 
  397000 1.0247603e+09 1.0039423e+09 
Loop time of 664.574 on 6 procs for 1000 steps with 31755 atoms

Pair  time (%) = 598.872 (90.1136)
Bond  time (%) = 0.77874 (0.117179)
Neigh time (%) = 5.12934 (0.771823)
Comm  time (%) = 24.2819 (3.65375)
Outpt time (%) = 2.12656 (0.319988)
Other time (%) = 33.3858 (5.02364)

Nlocal:    5292.5 ave 5374 max 5146 min
Histogram: 1 0 0 0 1 1 0 0 1 2
Nghost:    7808.33 ave 7904 max 7604 min
Histogram: 1 0 0 0 0 1 1 0 0 3
Neighs:    300500 ave 311361 max 282444 min
Histogram: 1 0 0 1 0 0 1 0 1 2
FullNghs: 600999 ave 622828 max 565051 min
Histogram: 1 0 0 1 0 1 0 0 1 2

Total # of neighbors = 3605994
Ave neighs/atom = 113.557
Ave special neighs/atom = 5.09986
Neighbor list builds = 100
Dangerous builds = 100
velocity all zero linear
WARNING: Use special bonds = 0,1,1 with bond style fene (bond_fene.cpp:189)
Memory usage per processor = 18.1281 Mbytes
Step sdpd_kin pTemp 
  397000 1.0247602e+09 1.0039423e+09 
  397100 1.0284422e+09 1.0079788e+09 
  397200 1.0299937e+09 1.0099387e+09 
  397300 1.016127e+09 9.9615501e+08 
  397400 1.0218986e+09 1.0020256e+09 
  397500 1.020109e+09 1.0003646e+09 
  397600 1.0280701e+09 1.0073338e+09 
  397700 1.0152489e+09 9.9453563e+08 
  397800 1.0266663e+09 1.0057132e+09 
  397900 1.0268056e+09 1.0056421e+09 
  398000 1.0275267e+09 1.007297e+09 
Loop time of 681.986 on 6 procs for 1000 steps with 31755 atoms

Pair  time (%) = 597.778 (87.6526)
Bond  time (%) = 0.775904 (0.113771)
Neigh time (%) = 5.10921 (0.749166)
Comm  time (%) = 41.872 (6.13972)
Outpt time (%) = 2.12109 (0.311016)
Other time (%) = 34.3295 (5.03376)

Nlocal:    5292.5 ave 5413 max 5197 min
Histogram: 2 0 0 0 1 1 1 0 0 1
Nghost:    7839 ave 7967 max 7690 min
Histogram: 1 0 1 1 0 0 1 0 0 2
Neighs:    301715 ave 319379 max 286726 min
Histogram: 1 1 0 0 2 0 1 0 0 1
FullNghs: 603430 ave 637574 max 573867 min
Histogram: 1 1 0 0 1 1 1 0 0 1

Total # of neighbors = 3620578
Ave neighs/atom = 114.016
Ave special neighs/atom = 5.09986
Neighbor list builds = 100
Dangerous builds = 100
velocity all zero linear
WARNING: Use special bonds = 0,1,1 with bond style fene (bond_fene.cpp:189)
Memory usage per processor = 18.1281 Mbytes
Step sdpd_kin pTemp 
  398000 1.0275267e+09 1.007297e+09 
  398100 1.0243211e+09 1.0038454e+09 
  398200 1.0273586e+09 1.0072007e+09 
  398300 1.026854e+09 1.0065083e+09 
  398400 1.0214458e+09 1.0014973e+09 
  398500 1.0205103e+09 1.0009018e+09 
  398600 1.0230717e+09 1.0037904e+09 
  398700 1.0272201e+09 1.0074991e+09 
  398800 1.0260532e+09 1.0060596e+09 
  398900 1.0160354e+09 9.9607635e+08 
  399000 1.0202089e+09 1.0003982e+09 
Loop time of 676.104 on 6 procs for 1000 steps with 31755 atoms

Pair  time (%) = 601.746 (89.0019)
Bond  time (%) = 0.770794 (0.114005)
Neigh time (%) = 5.13793 (0.759933)
Comm  time (%) = 32.6959 (4.83593)
Outpt time (%) = 2.13176 (0.315301)
Other time (%) = 33.6219 (4.97289)

Nlocal:    5292.5 ave 5394 max 5197 min
Histogram: 1 0 1 0 1 2 0 0 0 1
Nghost:    7857 ave 7917 max 7778 min
Histogram: 1 0 1 0 0 1 0 1 1 1
Neighs:    302563 ave 315140 max 290870 min
Histogram: 2 0 0 0 0 2 1 0 0 1
FullNghs: 605126 ave 630855 max 583487 min
Histogram: 1 1 0 0 0 3 0 0 0 1

Total # of neighbors = 3630758
Ave neighs/atom = 114.337
Ave special neighs/atom = 5.09986
Neighbor list builds = 100
Dangerous builds = 100
velocity all zero linear
WARNING: Use special bonds = 0,1,1 with bond style fene (bond_fene.cpp:189)
Memory usage per processor = 18.1281 Mbytes
Step sdpd_kin pTemp 
  399000 1.0202089e+09 1.0003982e+09 
  399100 1.0292391e+09 1.0094596e+09 
  399200 1.0227282e+09 1.0032662e+09 
  399300 1.0178593e+09 9.9820396e+08 
  399400 1.0217722e+09 1.002091e+09 
  399500 1.0204827e+09 1.0004707e+09 
  399600 1.018357e+09 9.9809171e+08 
  399700 1.0273327e+09 1.0066308e+09 
  399800 1.0231763e+09 1.0026944e+09 
  399900 1.022674e+09 1.0026677e+09 
  400000 1.0242163e+09 1.0039928e+09 
Loop time of 673.448 on 6 procs for 1000 steps with 31755 atoms

Pair  time (%) = 602.691 (89.4932)
Bond  time (%) = 0.781142 (0.115991)
Neigh time (%) = 5.13937 (0.763142)
Comm  time (%) = 29.2888 (4.34907)
Outpt time (%) = 2.16069 (0.32084)
Other time (%) = 33.3878 (4.95774)

Nlocal:    5292.5 ave 5433 max 5174 min
Histogram: 2 0 1 0 0 0 1 1 0 1
Nghost:    7824.83 ave 7914 max 7580 min
Histogram: 1 0 0 0 0 0 0 2 0 3
Neighs:    303098 ave 319043 max 286734 min
Histogram: 1 1 1 0 0 0 0 1 1 1
FullNghs: 606197 ave 637800 max 573922 min
Histogram: 1 1 0 1 0 0 0 1 1 1

Total # of neighbors = 3637182
Ave neighs/atom = 114.539
Ave special neighs/atom = 5.09986
Neighbor list builds = 100
Dangerous builds = 99
velocity all zero linear
WARNING: Use special bonds = 0,1,1 with bond style fene (bond_fene.cpp:189)
Memory usage per processor = 18.891 Mbytes
Step sdpd_kin pTemp 
  400000 1.0242163e+09 1.0039928e+09 
  400100 1.023162e+09 1.0023762e+09 
  400200 1.0283144e+09 1.007649e+09 
  400300 1.0221332e+09 1.0017014e+09 
  400400 1.0198072e+09 9.9879284e+08 
  400500 1.0219111e+09 1.0008497e+09 
  400600 1.0282018e+09 1.006955e+09 
  400700 1.0224985e+09 1.0014974e+09 
  400800 1.0213635e+09 1.0001503e+09 
  400900 1.022628e+09 1.0009822e+09 
  401000 1.0351855e+09 1.013341e+09 
Loop time of 676.282 on 6 procs for 1000 steps with 31755 atoms

Pair  time (%) = 602.997 (89.1635)
Bond  time (%) = 0.770511 (0.113933)
Neigh time (%) = 5.12204 (0.757381)
Comm  time (%) = 33.4222 (4.94205)
Outpt time (%) = 2.12974 (0.314918)
Other time (%) = 31.8411 (4.70826)

Nlocal:    5292.5 ave 5388 max 5184 min
Histogram: 1 0 1 1 0 0 1 0 0 2
Nghost:    7725 ave 7890 max 7479 min
Histogram: 2 0 0 0 0 0 1 0 1 2
Neighs:    302864 ave 317941 max 290221 min
Histogram: 1 1 1 0 0 0 2 0 0 1
FullNghs: 605728 ave 633797 max 582041 min
Histogram: 1 1 1 0 0 0 2 0 0 1

Total # of neighbors = 3634366
Ave neighs/atom = 114.45
Ave special neighs/atom = 5.09986
Neighbor list builds = 100
Dangerous builds = 100
velocity all zero linear
WARNING: Use special bonds = 0,1,1 with bond style fene (bond_fene.cpp:189)
Memory usage per processor = 18.891 Mbytes
Step sdpd_kin pTemp 
  401000 1.0351855e+09 1.013341e+09 
  401100 1.0251433e+09 1.0038515e+09 
  401200 1.0243921e+09 1.0034801e+09 
  401300 1.0246853e+09 1.0035689e+09 
  401400 1.0235966e+09 1.0025966e+09 
  401500 1.0232398e+09 1.0015779e+09 
  401600 1.0345922e+09 1.0127295e+09 
  401700 1.0202599e+09 9.9874675e+08 
  401800 1.0259447e+09 1.0042573e+09 
  401900 1.0222103e+09 1.0007464e+09 
  402000 1.0182205e+09 9.9681186e+08 
Loop time of 670.931 on 6 procs for 1000 steps with 31755 atoms

Pair  time (%) = 601.237 (89.6123)
Bond  time (%) = 0.772942 (0.115204)
Neigh time (%) = 5.12932 (0.764508)
Comm  time (%) = 28.0468 (4.18028)
Outpt time (%) = 2.11164 (0.314733)
Other time (%) = 33.6337 (5.01299)

Nlocal:    5292.5 ave 5393 max 5160 min
Histogram: 1 1 0 0 0 0 1 1 1 1
Nghost:    7726.5 ave 8031 max 7459 min
Histogram: 1 2 0 0 0 0 1 0 1 1
Neighs:    303380 ave 314640 max 289228 min
Histogram: 2 0 0 0 0 1 0 0 2 1
FullNghs: 606760 ave 630112 max 577667 min
Histogram: 2 0 0 0 0 0 1 0 2 1

Total # of neighbors = 3640558
Ave neighs/atom = 114.645
Ave special neighs/atom = 5.09986
Neighbor list builds = 100
Dangerous builds = 100
velocity all zero linear
WARNING: Use special bonds = 0,1,1 with bond style fene (bond_fene.cpp:189)
Memory usage per processor = 18.891 Mbytes
Step sdpd_kin pTemp 
  402000 1.0182204e+09 9.9681186e+08 
  402100 1.0241462e+09 1.002453e+09 
  402200 1.0289791e+09 1.0073848e+09 
  402300 1.0215813e+09 1.0002366e+09 
  402400 1.0299266e+09 1.0091383e+09 
  402500 1.0153553e+09 9.9457525e+08 
  402600 1.0255421e+09 1.0045524e+09 
  402700 1.0163954e+09 9.9538877e+08 
  402800 1.0206656e+09 9.9969348e+08 
  402900 1.0199321e+09 9.9914971e+08 
  403000 1.0178384e+09 9.9728915e+08 
Loop time of 692.794 on 6 procs for 1000 steps with 31755 atoms

Pair  time (%) = 603.585 (87.1234)
Bond  time (%) = 0.769193 (0.111028)
Neigh time (%) = 5.13081 (0.740597)
Comm  time (%) = 46.6589 (6.73489)
Outpt time (%) = 2.14144 (0.309103)
Other time (%) = 34.5079 (4.98098)

Nlocal:    5292.5 ave 5491 max 5055 min
Histogram: 1 0 0 0 2 1 0 0 1 1
Nghost:    7789 ave 8031 max 7636 min
Histogram: 2 1 0 1 0 0 0 1 0 1
Neighs:    302659 ave 322625 max 275279 min
Histogram: 1 0 0 0 1 1 1 0 1 1
FullNghs: 605318 ave 644140 max 551973 min
Histogram: 1 0 0 0 1 1 1 0 1 1

Total # of neighbors = 3631908
Ave neighs/atom = 114.373
Ave special neighs/atom = 5.09986
Neighbor list builds = 100
Dangerous builds = 100
velocity all zero linear
WARNING: Use special bonds = 0,1,1 with bond style fene (bond_fene.cpp:189)
Memory usage per processor = 18.891 Mbytes
Step sdpd_kin pTemp 
  403000 1.0178383e+09 9.9728915e+08 
  403100 1.0300962e+09 1.0092421e+09 
  403200 1.018861e+09 9.9757362e+08 
  403300 1.0140975e+09 9.9281669e+08 
  403400 1.0294269e+09 1.0079557e+09 
  403500 1.0153486e+09 9.9412594e+08 
  403600 1.0266784e+09 1.005448e+09 
  403700 1.0259875e+09 1.0043723e+09 
  403800 1.0207739e+09 9.9905842e+08 
  403900 1.0239092e+09 1.0024384e+09 
  404000 1.0292378e+09 1.0076264e+09 
Loop time of 685.028 on 6 procs for 1000 steps with 31755 atoms

Pair  time (%) = 602.072 (87.8902)
Bond  time (%) = 0.771899 (0.112681)
Neigh time (%) = 5.11784 (0.7471)
Comm  time (%) = 41.1513 (6.00724)
Outpt time (%) = 2.10251 (0.306923)
Other time (%) = 33.8122 (4.93589)

Nlocal:    5292.5 ave 5426 max 5105 min
Histogram: 1 0 0 0 0 2 2 0 0 1
Nghost:    7842.67 ave 8039 max 7698 min
Histogram: 1 0 2 0 1 0 1 0 0 1
Neighs:    302492 ave 318936 max 279756 min
Histogram: 1 0 0 0 0 1 3 0 0 1
FullNghs: 604983 ave 640676 max 559111 min
Histogram: 1 0 0 0 0 1 3 0 0 1

Total # of neighbors = 3629898
Ave neighs/atom = 114.309
Ave special neighs/atom = 5.09986
Neighbor list builds = 100
Dangerous builds = 100
velocity all zero linear
WARNING: Use special bonds = 0,1,1 with bond style fene (bond_fene.cpp:189)
Memory usage per processor = 18.891 Mbytes
Step sdpd_kin pTemp 
  404000 1.0292378e+09 1.0076264e+09 
  404100 1.0252882e+09 1.0036958e+09 
  404200 1.0146824e+09 9.9323411e+08 
  404300 1.0219038e+09 1.0003213e+09 
  404400 1.0246323e+09 1.0029362e+09 
  404500 1.0257407e+09 1.0036775e+09 
  404600 1.0258497e+09 1.0033304e+09 
  404700 1.0216798e+09 9.9913069e+08 
  404800 1.0231628e+09 1.0005221e+09 
  404900 1.0280863e+09 1.0050164e+09 
  405000 1.0259999e+09 1.0022983e+09 
Loop time of 671.429 on 6 procs for 1000 steps with 31755 atoms

Pair  time (%) = 602.156 (89.6827)
Bond  time (%) = 0.779536 (0.116101)
Neigh time (%) = 5.1324 (0.7644)
Comm  time (%) = 26.2612 (3.91124)
Outpt time (%) = 2.11447 (0.314921)
Other time (%) = 34.9857 (5.21063)

Nlocal:    5292.5 ave 5453 max 5164 min
Histogram: 1 0 1 1 1 0 1 0 0 1
Nghost:    7739.33 ave 7865 max 7573 min
Histogram: 1 0 1 0 0 1 1 0 0 2
Neighs:    302248 ave 315612 max 287670 min
Histogram: 1 0 0 0 3 0 0 1 0 1
FullNghs: 604497 ave 632536 max 575233 min
Histogram: 1 0 0 1 2 0 0 1 0 1

Total # of neighbors = 3626980
Ave neighs/atom = 114.218
Ave special neighs/atom = 5.09986
Neighbor list builds = 100
Dangerous builds = 100
velocity all zero linear
WARNING: Use special bonds = 0,1,1 with bond style fene (bond_fene.cpp:189)
Memory usage per processor = 18.891 Mbytes
Step sdpd_kin pTemp 
  405000 1.0259999e+09 1.0022983e+09 
  405100 1.0250614e+09 1.0017547e+09 
  405200 1.0263396e+09 1.0029401e+09 
  405300 1.025307e+09 1.0014894e+09 
  405400 1.0334604e+09 1.0103979e+09 
  405500 1.020094e+09 9.973485e+08 
  405600 1.0261346e+09 1.0029414e+09 
  405700 1.0235716e+09 1.0000952e+09 
  405800 1.0273329e+09 1.0043616e+09 
  405900 1.0262262e+09 1.0031066e+09 
  406000 1.0267239e+09 1.0031575e+09 
Loop time of 667.566 on 6 procs for 1000 steps with 31755 atoms

Pair  time (%) = 601.368 (90.0836)
Bond  time (%) = 0.773188 (0.115822)
Neigh time (%) = 5.1329 (0.768897)
Comm  time (%) = 24.5357 (3.67539)
Outpt time (%) = 2.10501 (0.315327)
Other time (%) = 33.6517 (5.04096)

Nlocal:    5292.5 ave 5395 max 5188 min
Histogram: 1 1 0 1 0 1 0 0 0 2
Nghost:    7785.5 ave 8027 max 7634 min
Histogram: 2 0 2 0 0 0 0 1 0 1
Neighs:    301110 ave 313667 max 290068 min
Histogram: 1 1 0 1 1 0 0 0 0 2
FullNghs: 602220 ave 626922 max 580044 min
Histogram: 1 1 0 1 1 0 0 0 0 2

Total # of neighbors = 3613320
Ave neighs/atom = 113.787
Ave special neighs/atom = 5.09986
Neighbor list builds = 100
Dangerous builds = 100
velocity all zero linear
WARNING: Use special bonds = 0,1,1 with bond style fene (bond_fene.cpp:189)
Memory usage per processor = 18.891 Mbytes
Step sdpd_kin pTemp 
  406000 1.0267239e+09 1.0031575e+09 
  406100 1.0342854e+09 1.0103582e+09 
  406200 1.0261675e+09 1.002545e+09 
  406300 1.0232548e+09 9.9981373e+08 
  406400 1.0276313e+09 1.0047233e+09 
  406500 1.0333397e+09 1.0100295e+09 
  406600 1.0287347e+09 1.0055799e+09 
  406700 1.0191962e+09 9.9569437e+08 
  406800 1.0304964e+09 1.0068387e+09 
  406900 1.0348318e+09 1.0106101e+09 
  407000 1.0264207e+09 1.0024041e+09 
Loop time of 669.693 on 6 procs for 1000 steps with 31755 atoms

Pair  time (%) = 600.479 (89.6648)
Bond  time (%) = 0.779296 (0.116366)
Neigh time (%) = 5.12541 (0.765337)
Comm  time (%) = 27.8023 (4.1515)
Outpt time (%) = 2.09745 (0.313196)
Other time (%) = 33.4098 (4.98882)

Nlocal:    5292.5 ave 5501 max 5148 min
Histogram: 2 0 1 0 0 1 1 0 0 1
Nghost:    7776.67 ave 7962 max 7672 min
Histogram: 2 0 2 0 0 1 0 0 0 1
Neighs:    300954 ave 322373 max 285614 min
Histogram: 2 0 0 1 0 2 0 0 0 1
FullNghs: 601908 ave 646296 max 571293 min
Histogram: 2 0 0 1 0 2 0 0 0 1

Total # of neighbors = 3611450
Ave neighs/atom = 113.729
Ave special neighs/atom = 5.09986
Neighbor list builds = 100
Dangerous builds = 100
velocity all zero linear
WARNING: Use special bonds = 0,1,1 with bond style fene (bond_fene.cpp:189)
Memory usage per processor = 18.891 Mbytes
Step sdpd_kin pTemp 
  407000 1.0264207e+09 1.0024041e+09 
  407100 1.0284844e+09 1.0045588e+09 
  407200 1.0210218e+09 9.9691059e+08 
  407300 1.0192108e+09 9.9606394e+08 
  407400 1.0269526e+09 1.0041845e+09 
  407500 1.0323747e+09  1.00953e+09 
  407600 1.0237699e+09 1.0010622e+09 
  407700 1.0276056e+09 1.0051011e+09 
  407800 1.0238746e+09 1.0010302e+09 
  407900 1.0211375e+09 9.9808835e+08 
  408000 1.0266089e+09 1.0041695e+09 
Loop time of 697.866 on 6 procs for 1000 steps with 31755 atoms

Pair  time (%) = 603.115 (86.4227)
Bond  time (%) = 0.78234 (0.112105)
Neigh time (%) = 5.14476 (0.737213)
Comm  time (%) = 52.3968 (7.50814)
Outpt time (%) = 2.10165 (0.301154)
Other time (%) = 34.3258 (4.91867)

Nlocal:    5292.5 ave 5562 max 5192 min
Histogram: 4 0 0 0 1 0 0 0 0 1
Nghost:    7763.5 ave 7975 max 7501 min
Histogram: 1 0 0 0 2 0 2 0 0 1
Neighs:    302686 ave 332726 max 290588 min
Histogram: 2 2 0 0 1 0 0 0 0 1
FullNghs: 605372 ave 664633 max 581329 min
Histogram: 2 2 0 0 1 0 0 0 0 1

Total # of neighbors = 3632232
Ave neighs/atom = 114.383
Ave special neighs/atom = 5.09986
Neighbor list builds = 100
Dangerous builds = 100
velocity all zero linear
WARNING: Use special bonds = 0,1,1 with bond style fene (bond_fene.cpp:189)
Memory usage per processor = 18.891 Mbytes
Step sdpd_kin pTemp 
  408000 1.0266089e+09 1.0041695e+09 
  408100 1.0233469e+09 1.0003077e+09 
  408200 1.0231651e+09 1.0002743e+09 
  408300 1.0272792e+09 1.0044761e+09 
  408400 1.0230725e+09 1.0003785e+09 
  408500 1.0333963e+09 1.0108435e+09 
  408600 1.0229515e+09 1.0005925e+09 
  408700 1.0224394e+09 1.0002319e+09 
  408800 1.0226089e+09 1.0002765e+09 
  408900 1.0170275e+09 9.9520308e+08 
  409000 1.0305007e+09 1.0089242e+09 
Loop time of 691.918 on 6 procs for 1000 steps with 31755 atoms

Pair  time (%) = 602.492 (87.0756)
Bond  time (%) = 0.78074 (0.112837)
Neigh time (%) = 5.15777 (0.74543)
Comm  time (%) = 45.5569 (6.58415)
Outpt time (%) = 2.10926 (0.304842)
Other time (%) = 35.8212 (5.17709)

Nlocal:    5292.5 ave 5441 max 5238 min
Histogram: 4 0 0 0 0 1 0 0 0 1
Nghost:    7760.17 ave 7965 max 7564 min
Histogram: 1 0 0 1 2 0 1 0 0 1
Neighs:    302086 ave 317258 max 292815 min
Histogram: 1 2 0 1 0 0 1 0 0 1
FullNghs: 604172 ave 635751 max 584994 min
Histogram: 1 2 1 0 0 0 1 0 0 1

Total # of neighbors = 3625032
Ave neighs/atom = 114.156
Ave special neighs/atom = 5.09986
Neighbor list builds = 100
Dangerous builds = 100
velocity all zero linear
WARNING: Use special bonds = 0,1,1 with bond style fene (bond_fene.cpp:189)
Memory usage per processor = 18.891 Mbytes
Step sdpd_kin pTemp 
  409000 1.0305007e+09 1.0089242e+09 
  409100 1.0118678e+09 9.8987247e+08 
  409200 1.019877e+09 9.9788717e+08 
  409300 1.0298553e+09 1.0073056e+09 
  409400 1.0244095e+09 1.0029626e+09 
  409500 1.0310122e+09 1.0098393e+09 
  409600 1.0183878e+09 9.9711605e+08 
  409700 1.0362887e+09 1.0146891e+09 
  409800 1.022214e+09 1.0006304e+09 
  409900 1.0145306e+09 9.9312169e+08 
  410000 1.0217584e+09 9.9995905e+08 
Loop time of 671.741 on 6 procs for 1000 steps with 31755 atoms

Pair  time (%) = 600.906 (89.455)
Bond  time (%) = 0.786337 (0.117059)
Neigh time (%) = 5.16282 (0.768573)
Comm  time (%) = 26.7214 (3.97793)
Outpt time (%) = 2.12292 (0.316033)
Other time (%) = 36.0413 (5.36536)

Nlocal:    5292.5 ave 5468 max 5153 min
Histogram: 1 0 2 0 1 0 1 0 0 1
Nghost:    7680.17 ave 7865 max 7479 min
Histogram: 2 1 0 0 0 0 0 0 1 2
Neighs:    302411 ave 317174 max 290190 min
Histogram: 1 0 2 0 1 0 0 1 0 1
FullNghs: 604822 ave 634253 max 581159 min
Histogram: 1 0 2 0 1 0 0 1 0 1

Total # of neighbors = 3628932
Ave neighs/atom = 114.279
Ave special neighs/atom = 5.09986
Neighbor list builds = 100
Dangerous builds = 99
velocity all zero linear
WARNING: Use special bonds = 0,1,1 with bond style fene (bond_fene.cpp:189)
Memory usage per processor = 18.891 Mbytes
Step sdpd_kin pTemp 
  410000 1.0217584e+09 9.9995905e+08 
  410100 1.0197999e+09 9.9825718e+08 
  410200 1.0265684e+09 1.0044823e+09 
  410300 1.0223934e+09 9.9978771e+08 
  410400 1.0308554e+09 1.0083509e+09 
  410500 1.0242437e+09 1.0024676e+09 
  410600 1.033482e+09 1.0115358e+09 
  410700 1.0231656e+09 1.0013766e+09 
  410800 1.0236293e+09 1.0024061e+09 
  410900 1.0228429e+09 1.0008767e+09 
  411000 1.0262591e+09 1.0047752e+09 
Loop time of 667.181 on 6 procs for 1000 steps with 31755 atoms

Pair  time (%) = 603.754 (90.4933)
Bond  time (%) = 0.782208 (0.117241)
Neigh time (%) = 5.15947 (0.773325)
Comm  time (%) = 18.8651 (2.82758)
Outpt time (%) = 2.10717 (0.315832)
Other time (%) = 36.513 (5.47273)

Nlocal:    5292.5 ave 5456 max 5144 min
Histogram: 1 0 1 1 1 0 0 1 0 1
Nghost:    7837.17 ave 8018 max 7648 min
Histogram: 1 0 1 1 1 0 0 0 0 2
Neighs:    302536 ave 314377 max 293280 min
Histogram: 1 2 0 0 1 0 0 0 1 1
FullNghs: 605073 ave 631494 max 587082 min
Histogram: 2 1 0 0 1 0 0 1 0 1

Total # of neighbors = 3630438
Ave neighs/atom = 114.326
Ave special neighs/atom = 5.09986
Neighbor list builds = 100
Dangerous builds = 100
velocity all zero linear
WARNING: Use special bonds = 0,1,1 with bond style fene (bond_fene.cpp:189)
Memory usage per processor = 18.891 Mbytes
Step sdpd_kin pTemp 
  411000 1.0262591e+09 1.0047752e+09 
  411100 1.0252875e+09 1.0034027e+09 
  411200 1.0215287e+09 9.997538e+08 
  411300 1.0210181e+09 9.990911e+08 
  411400 1.0226626e+09 1.0003934e+09 
  411500 1.0201274e+09 9.9796442e+08 
  411600 1.026665e+09 1.004623e+09 
  411700 1.0274033e+09 1.0051021e+09 
  411800 1.0288655e+09 1.0062629e+09 
  411900 1.0254858e+09 1.0026928e+09 
  412000 1.0225952e+09 9.9953736e+08 
Loop time of 670.333 on 6 procs for 1000 steps with 31755 atoms

Pair  time (%) = 601.954 (89.7992)
Bond  time (%) = 0.783711 (0.116914)
Neigh time (%) = 5.14161 (0.767023)
Comm  time (%) = 23.7759 (3.54687)
Outpt time (%) = 2.10136 (0.31348)
Other time (%) = 36.5768 (5.45651)

Nlocal:    5292.5 ave 5416 max 5193 min
Histogram: 1 1 1 0 0 1 1 0 0 1
Nghost:    7965 ave 8176 max 7793 min
Histogram: 2 1 0 0 0 0 0 2 0 1
Neighs:    302891 ave 312888 max 296148 min
Histogram: 3 0 0 0 0 0 1 1 0 1
FullNghs: 605782 ave 628050 max 592181 min
Histogram: 3 0 0 0 0 1 1 0 0 1

Total # of neighbors = 3634690
Ave neighs/atom = 114.46
Ave special neighs/atom = 5.09986
Neighbor list builds = 100
Dangerous builds = 100
velocity all zero linear
WARNING: Use special bonds = 0,1,1 with bond style fene (bond_fene.cpp:189)
Memory usage per processor = 18.891 Mbytes
Step sdpd_kin pTemp 
  412000 1.0225951e+09 9.9953736e+08 
  412100 1.0357865e+09 1.0124174e+09 
  412200 1.0356145e+09 1.012424e+09 
  412300 1.0302311e+09 1.0070376e+09 
  412400 1.0259988e+09 1.0027346e+09 
  412500 1.0331365e+09 1.0097325e+09 
  412600 1.0257629e+09 1.0022119e+09 
  412700 1.0394389e+09 1.0163336e+09 
  412800 1.0234835e+09 1.000014e+09 
  412900 1.0302383e+09 1.0066997e+09 
  413000 1.0248239e+09 1.0011638e+09 
Loop time of 667.227 on 6 procs for 1000 steps with 31755 atoms

Pair  time (%) = 603.275 (90.4152)
Bond  time (%) = 0.793317 (0.118898)
Neigh time (%) = 5.19086 (0.777975)
Comm  time (%) = 20.0142 (2.99961)
Outpt time (%) = 2.10977 (0.3162)
Other time (%) = 35.8444 (5.37214)

Nlocal:    5292.5 ave 5386 max 5160 min
Histogram: 1 0 0 0 1 1 0 2 0 1
Nghost:    7947.5 ave 8264 max 7655 min
Histogram: 1 0 0 0 4 0 0 0 0 1
Neighs:    303099 ave 315300 max 295350 min
Histogram: 1 1 0 1 2 0 0 0 0 1
FullNghs: 606198 ave 629661 max 591189 min
Histogram: 1 1 0 2 1 0 0 0 0 1

Total # of neighbors = 3637188
Ave neighs/atom = 114.539
Ave special neighs/atom = 5.09986
Neighbor list builds = 100
Dangerous builds = 100
velocity all zero linear
WARNING: Use special bonds = 0,1,1 with bond style fene (bond_fene.cpp:189)
Memory usage per processor = 18.891 Mbytes
Step sdpd_kin pTemp 
  413000 1.0248237e+09 1.0011638e+09 
  413100 1.0273289e+09 1.0036619e+09 
  413200 1.0212008e+09 9.9768979e+08 
  413300 1.0251718e+09 1.0019403e+09 
  413400 1.0320865e+09 1.0086316e+09 
  413500 1.0280971e+09 1.0047911e+09 
  413600 1.021214e+09 9.9805811e+08 
  413700 1.0289106e+09 1.0053812e+09 
  413800 1.0194837e+09 9.9560842e+08 
  413900 1.0275397e+09 1.003553e+09 
  414000 1.0222667e+09 9.9817091e+08 
Loop time of 678.943 on 6 procs for 1000 steps with 31755 atoms

Pair  time (%) = 603.083 (88.8268)
Bond  time (%) = 0.777652 (0.114539)
Neigh time (%) = 5.15266 (0.758924)
Comm  time (%) = 32.4368 (4.77755)
Outpt time (%) = 2.11252 (0.311149)
Other time (%) = 35.3798 (5.21102)

Nlocal:    5292.5 ave 5530 max 5160 min
Histogram: 1 1 1 2 0 0 0 0 0 1
Nghost:    7950.5 ave 8251 max 7825 min
Histogram: 2 2 0 1 0 0 0 0 0 1
Neighs:    302975 ave 327890 max 291280 min
Histogram: 2 0 2 1 0 0 0 0 0 1
FullNghs: 605950 ave 657237 max 582899 min
Histogram: 2 0 2 1 0 0 0 0 0 1

Total # of neighbors = 3635700
Ave neighs/atom = 114.492
Ave special neighs/atom = 5.09986
Neighbor list builds = 100
Dangerous builds = 100
velocity all zero linear
WARNING: Use special bonds = 0,1,1 with bond style fene (bond_fene.cpp:189)
Memory usage per processor = 18.1281 Mbytes
Step sdpd_kin pTemp 
  414000 1.0222666e+09 9.9817091e+08 
  414100 1.018619e+09 9.9490741e+08 
  414200 1.0239901e+09 1.0003457e+09 
  414300 1.0226142e+09 9.9911585e+08 
  414400  1.02876e+09 1.0052201e+09 
  414500 1.0263907e+09 1.0024799e+09 
  414600 1.0273806e+09 1.0036652e+09 
  414700 1.0238101e+09 1.0004732e+09 
  414800 1.0347905e+09 1.011319e+09 
  414900 1.0263911e+09 1.0030129e+09 
  415000 1.0228853e+09 9.9942123e+08 
Loop time of 699.774 on 6 procs for 1000 steps with 31755 atoms

Pair  time (%) = 602.768 (86.1375)
Bond  time (%) = 0.784999 (0.112179)
Neigh time (%) = 5.15656 (0.73689)
Comm  time (%) = 53.823 (7.69149)
Outpt time (%) = 2.1132 (0.301983)
Other time (%) = 35.1287 (5.02001)

Nlocal:    5292.5 ave 5544 max 5169 min
Histogram: 1 2 1 0 1 0 0 0 0 1
Nghost:    7957.33 ave 8214 max 7858 min
Histogram: 3 1 0 0 1 0 0 0 0 1
Neighs:    302468 ave 331989 max 287068 min
Histogram: 2 0 1 2 0 0 0 0 0 1
FullNghs: 604936 ave 662742 max 573647 min
Histogram: 1 1 1 2 0 0 0 0 0 1

Total # of neighbors = 3629616
Ave neighs/atom = 114.301
Ave special neighs/atom = 5.09986
Neighbor list builds = 100
Dangerous builds = 100
velocity all zero linear
WARNING: Use special bonds = 0,1,1 with bond style fene (bond_fene.cpp:189)
Memory usage per processor = 18.1281 Mbytes
Step sdpd_kin pTemp 
  415000 1.0228853e+09 9.9942123e+08 
  415100 1.0308452e+09 1.0073282e+09 
  415200 1.0240169e+09 1.0005125e+09 
  415300 1.0218199e+09 9.9823332e+08 
  415400 1.0253348e+09 1.0021702e+09 
  415500 1.0278008e+09 1.0043586e+09 
  415600 1.0284918e+09 1.005092e+09 
  415700 1.0348383e+09 1.0112713e+09 
  415800 1.031751e+09 1.0074163e+09 
  415900 1.0275062e+09 1.0035588e+09 
  416000 1.020867e+09 9.9715818e+08 
Loop time of 690.154 on 6 procs for 1000 steps with 31755 atoms

Pair  time (%) = 603.21 (87.4021)
Bond  time (%) = 0.793306 (0.114946)
Neigh time (%) = 5.14194 (0.745042)
Comm  time (%) = 44.9345 (6.51079)
Outpt time (%) = 2.11725 (0.306779)
Other time (%) = 33.9577 (4.9203)

Nlocal:    5292.5 ave 5463 max 5149 min
Histogram: 1 0 1 1 0 1 1 0 0 1
Nghost:    8004.5 ave 8249 max 7852 min
Histogram: 2 1 0 0 1 0 1 0 0 1
Neighs:    303198 ave 322126 max 286798 min
Histogram: 1 1 0 1 0 1 1 0 0 1
FullNghs: 606396 ave 643587 max 572350 min
Histogram: 1 0 1 1 0 1 1 0 0 1

Total # of neighbors = 3638374
Ave neighs/atom = 114.576
Ave special neighs/atom = 5.09986
Neighbor list builds = 100
Dangerous builds = 100
velocity all zero linear
WARNING: Use special bonds = 0,1,1 with bond style fene (bond_fene.cpp:189)
Memory usage per processor = 18.5096 Mbytes
Step sdpd_kin pTemp 
  416000 1.020867e+09 9.9715818e+08 
  416100 1.0196018e+09 9.9621964e+08 
  416200 1.0254283e+09 1.0021346e+09 
  416300 1.0181557e+09 9.9462762e+08 
  416400 1.0329037e+09 1.0092938e+09 
  416500 1.0262753e+09 1.0023812e+09 
  416600 1.0267779e+09 1.0033505e+09 
  416700 1.0259664e+09 1.0025386e+09 
  416800 1.0195291e+09 9.9613183e+08 
  416900 1.0222367e+09 9.9964915e+08 
  417000 1.0272744e+09 1.0045459e+09 
Loop time of 685.069 on 6 procs for 1000 steps with 31755 atoms

Pair  time (%) = 602.702 (87.9768)
Bond  time (%) = 0.77862 (0.113656)
Neigh time (%) = 5.14193 (0.750571)
Comm  time (%) = 39.6791 (5.79199)
Outpt time (%) = 2.10413 (0.307141)
Other time (%) = 34.6633 (5.05982)

Nlocal:    5292.5 ave 5502 max 5113 min
Histogram: 1 2 0 0 0 0 1 1 0 1
Nghost:    7945.33 ave 8077 max 7732 min
Histogram: 1 0 1 0 0 0 0 2 0 2
Neighs:    302396 ave 323080 max 284703 min
Histogram: 1 1 1 0 0 0 1 1 0 1
FullNghs: 604793 ave 647374 max 570250 min
Histogram: 2 0 1 0 0 0 2 0 0 1

Total # of neighbors = 3628756
Ave neighs/atom = 114.274
Ave special neighs/atom = 5.09986
Neighbor list builds = 100
Dangerous builds = 100
velocity all zero linear
WARNING: Use special bonds = 0,1,1 with bond style fene (bond_fene.cpp:189)
Memory usage per processor = 18.1281 Mbytes
Step sdpd_kin pTemp 
  417000 1.0272744e+09 1.0045459e+09 
  417100 1.029636e+09 1.0065819e+09 
  417200 1.0236582e+09 1.0005215e+09 
  417300 1.0280405e+09 1.0047522e+09 
  417400 1.0084676e+09 9.8561527e+08 
  417500 1.0283616e+09 1.0055772e+09 
  417600 1.0279857e+09 1.0058343e+09 
  417700 1.0246336e+09 1.0022275e+09 
  417800 1.030271e+09 1.0080423e+09 
  417900 1.0199104e+09 9.976167e+08 
  418000 1.0275047e+09 1.0053278e+09 
Loop time of 682.966 on 6 procs for 1000 steps with 31755 atoms

Pair  time (%) = 601.477 (88.0683)
Bond  time (%) = 0.788712 (0.115483)
Neigh time (%) = 5.12579 (0.750519)
Comm  time (%) = 39.2108 (5.74125)
Outpt time (%) = 2.11073 (0.309053)
Other time (%) = 34.2536 (5.01541)

Nlocal:    5292.5 ave 5444 max 5127 min
Histogram: 1 0 1 0 1 1 0 0 1 1
Nghost:    7901.83 ave 8054 max 7701 min
Histogram: 1 0 0 0 2 0 0 2 0 1
Neighs:    302209 ave 317796 max 285940 min
Histogram: 1 1 0 0 1 1 0 0 0 2
FullNghs: 604418 ave 635689 max 572100 min
Histogram: 1 1 0 0 1 1 0 0 0 2

Total # of neighbors = 3626510
Ave neighs/atom = 114.203
Ave special neighs/atom = 5.09986
Neighbor list builds = 100
Dangerous builds = 100
velocity all zero linear
WARNING: Use special bonds = 0,1,1 with bond style fene (bond_fene.cpp:189)
Memory usage per processor = 18.1281 Mbytes
Step sdpd_kin pTemp 
  418000 1.0275047e+09 1.0053278e+09 
  418100 1.0270428e+09 1.0049422e+09 
  418200 1.0390551e+09 1.0169188e+09 
  418300 1.0275998e+09 1.0050149e+09 
  418400 1.0352074e+09 1.0128677e+09 
  418500 1.0146608e+09 9.9259057e+08 
  418600 1.0276669e+09 1.0055439e+09 
  418700 1.0274349e+09 1.0053119e+09 
  418800 1.0278034e+09 1.0057292e+09 
  418900 1.0264789e+09 1.0044035e+09 
  419000 1.018519e+09 9.9676338e+08 
Loop time of 674.957 on 6 procs for 1000 steps with 31755 atoms

Pair  time (%) = 600.974 (89.0389)
Bond  time (%) = 0.774898 (0.114807)
Neigh time (%) = 5.1235 (0.759086)
Comm  time (%) = 32.5427 (4.82144)
Outpt time (%) = 2.11222 (0.312942)
Other time (%) = 33.4295 (4.95284)

Nlocal:    5292.5 ave 5414 max 5163 min
Histogram: 1 1 0 1 0 0 0 0 2 1
Nghost:    7820.83 ave 7884 max 7732 min
Histogram: 1 0 0 0 1 1 1 0 1 1
Neighs:    301779 ave 311817 max 287412 min
Histogram: 1 1 0 0 1 0 0 0 0 3
FullNghs: 603559 ave 625001 max 576706 min
Histogram: 1 1 0 1 0 0 0 0 1 2

Total # of neighbors = 3621352
Ave neighs/atom = 114.04
Ave special neighs/atom = 5.09986
Neighbor list builds = 100
Dangerous builds = 100
velocity all zero linear
WARNING: Use special bonds = 0,1,1 with bond style fene (bond_fene.cpp:189)
Memory usage per processor = 18.1281 Mbytes
Step sdpd_kin pTemp 
  419000 1.018519e+09 9.9676338e+08 
  419100 1.0283559e+09 1.0062362e+09 
  419200 1.0216465e+09 9.9982623e+08 
  419300 1.0253504e+09 1.0036589e+09 
  419400 1.0276625e+09 1.0058787e+09 
  419500 1.0178347e+09 9.9543546e+08 
  419600 1.0269718e+09 1.0050313e+09 
  419700 1.0290157e+09 1.0067822e+09 
  419800 1.0270303e+09 1.004992e+09 
  419900 1.0340665e+09 1.0112399e+09 
  420000 1.0252348e+09 1.0032843e+09 
Loop time of 672.166 on 6 procs for 1000 steps with 31755 atoms

Pair  time (%) = 601.572 (89.4975)
Bond  time (%) = 0.768735 (0.114367)
Neigh time (%) = 5.11911 (0.761584)
Comm  time (%) = 28.975 (4.31068)
Outpt time (%) = 2.1457 (0.319222)
Other time (%) = 33.5861 (4.99669)

Nlocal:    5292.5 ave 5344 max 5206 min
Histogram: 1 0 0 0 0 2 0 0 2 1
Nghost:    7778.83 ave 7889 max 7550 min
Histogram: 1 0 0 0 0 1 0 1 1 2
Neighs:    302000 ave 312299 max 291999 min
Histogram: 1 0 0 1 2 0 0 1 0 1
FullNghs: 604000 ave 624382 max 585752 min
Histogram: 1 0 0 1 2 0 1 0 0 1

Total # of neighbors = 3623998
Ave neighs/atom = 114.124
Ave special neighs/atom = 5.09986
Neighbor list builds = 100
Dangerous builds = 99
velocity all zero linear
WARNING: Use special bonds = 0,1,1 with bond style fene (bond_fene.cpp:189)
Memory usage per processor = 18.1281 Mbytes
Step sdpd_kin pTemp 
  420000 1.0252347e+09 1.0032843e+09 
  420100 1.0189017e+09 9.9691212e+08 
  420200 1.0251288e+09 1.003792e+09 
  420300 1.0275227e+09 1.0060452e+09 
  420400 1.0299147e+09 1.0081252e+09 
  420500 1.0200829e+09 9.9882231e+08 
  420600 1.0262638e+09 1.0048864e+09 
  420700 1.0202582e+09 9.9896698e+08 
  420800 1.0160646e+09 9.9508799e+08 
  420900 1.0281916e+09 1.0075954e+09 
  421000 1.0276586e+09 1.0072951e+09 
Loop time of 654.662 on 6 procs for 1000 steps with 31755 atoms

Pair  time (%) = 600.221 (91.6841)
Bond  time (%) = 0.798833 (0.122022)
Neigh time (%) = 5.15618 (0.787609)
Comm  time (%) = 13.0452 (1.99266)
Outpt time (%) = 2.13093 (0.3255)
Other time (%) = 33.3098 (5.08809)

Nlocal:    5292.5 ave 5366 max 5159 min
Histogram: 1 0 0 0 1 0 1 0 2 1
Nghost:    7882.67 ave 8114 max 7666 min
Histogram: 1 0 0 2 1 0 0 1 0 1
Neighs:    302746 ave 308535 max 287668 min
Histogram: 1 0 0 0 0 0 0 2 1 2
FullNghs: 605491 ave 615348 max 576626 min
Histogram: 1 0 0 0 0 0 0 1 1 3

Total # of neighbors = 3632948
Ave neighs/atom = 114.406
Ave special neighs/atom = 5.09986
Neighbor list builds = 100
Dangerous builds = 100
velocity all zero linear
WARNING: Use special bonds = 0,1,1 with bond style fene (bond_fene.cpp:189)
Memory usage per processor = 18.1281 Mbytes
Step sdpd_kin pTemp 
  421000 1.0276586e+09 1.0072951e+09 
  421100 1.0216005e+09 1.0011688e+09 
  421200 1.0244453e+09 1.0038309e+09 
  421300 1.0242408e+09 1.0033119e+09 
  421400 1.0264188e+09 1.0049957e+09 
  421500 1.0216845e+09 1.0004506e+09 
  421600 1.0244609e+09 1.0030914e+09 
  421700 1.0302147e+09 1.0090158e+09 
  421800 1.0268012e+09 1.0058394e+09 
  421900 1.016896e+09 9.9511672e+08 
  422000 1.0213296e+09 9.9984016e+08 
Loop time of 664.47 on 6 procs for 1000 steps with 31755 atoms

Pair  time (%) = 601.336 (90.4986)
Bond  time (%) = 0.788708 (0.118697)
Neigh time (%) = 5.14476 (0.774264)
Comm  time (%) = 20.1577 (3.03364)
Outpt time (%) = 2.15639 (0.324528)
Other time (%) = 34.8862 (5.25022)

Nlocal:    5292.5 ave 5394 max 5192 min
Histogram: 2 0 1 0 0 0 0 1 1 1
Nghost:    7946.17 ave 8095 max 7838 min
Histogram: 2 1 0 0 0 1 0 1 0 1
Neighs:    302323 ave 313736 max 292322 min
Histogram: 1 2 0 0 1 0 0 0 0 2
FullNghs: 604647 ave 627052 max 586209 min
Histogram: 1 2 0 0 1 0 0 0 0 2

Total # of neighbors = 3627880
Ave neighs/atom = 114.246
Ave special neighs/atom = 5.09986
Neighbor list builds = 100
Dangerous builds = 100
velocity all zero linear
WARNING: Use special bonds = 0,1,1 with bond style fene (bond_fene.cpp:189)
Memory usage per processor = 18.1281 Mbytes
Step sdpd_kin pTemp 
  422000 1.0213295e+09 9.9984016e+08 
  422100 1.0222604e+09 1.0009557e+09 
  422200 1.0240121e+09 1.0022358e+09 
  422300 1.0262371e+09 1.004334e+09 
  422400 1.0218476e+09 9.9983272e+08 
  422500 1.0316249e+09 1.0099296e+09 
  422600 1.0223305e+09 1.0001702e+09 
  422700 1.0297656e+09 1.0078507e+09 
  422800 1.0228594e+09 1.0011264e+09 
  422900 1.0217541e+09 1.0005189e+09 
  423000 1.0319483e+09 1.0101056e+09 
Loop time of 684.386 on 6 procs for 1000 steps with 31755 atoms

Pair  time (%) = 602.954 (88.1014)
Bond  time (%) = 0.784403 (0.114614)
Neigh time (%) = 5.14418 (0.751649)
Comm  time (%) = 38.7762 (5.66584)
Outpt time (%) = 2.13592 (0.312093)
Other time (%) = 34.5916 (5.05439)

Nlocal:    5292.5 ave 5503 max 5166 min
Histogram: 1 0 2 2 0 0 0 0 0 1
Nghost:    7906.83 ave 8120 max 7702 min
Histogram: 1 0 1 1 0 1 0 0 1 1
Neighs:    303337 ave 322797 max 290061 min
Histogram: 1 0 2 0 1 1 0 0 0 1
FullNghs: 606673 ave 647238 max 579748 min
Histogram: 1 0 2 0 2 0 0 0 0 1

Total # of neighbors = 3640040
Ave neighs/atom = 114.629
Ave special neighs/atom = 5.09986
Neighbor list builds = 100
Dangerous builds = 100
velocity all zero linear
WARNING: Use special bonds = 0,1,1 with bond style fene (bond_fene.cpp:189)
Memory usage per processor = 18.891 Mbytes
Step sdpd_kin pTemp 
  423000 1.0319482e+09 1.0101056e+09 
  423100 1.036622e+09 1.0144488e+09 
  423200 1.0289829e+09 1.0068892e+09 
  423300 1.0297885e+09 1.0079607e+09 
  423400 1.0239535e+09 1.0017355e+09 
  423500 1.024765e+09 1.0031254e+09 
  423600 1.0335106e+09 1.0114879e+09 
  423700 1.0250143e+09 1.0029011e+09 
  423800 1.0285314e+09 1.0064929e+09 
  423900 1.0233511e+09 1.0011213e+09 
  424000 1.0245878e+09 1.0021826e+09 
Loop time of 690.067 on 6 procs for 1000 steps with 31755 atoms

Pair  time (%) = 604.002 (87.528)
Bond  time (%) = 0.771883 (0.111856)
Neigh time (%) = 5.14386 (0.745415)
Comm  time (%) = 43.3235 (6.27815)
Outpt time (%) = 2.12698 (0.308228)
Other time (%) = 34.6992 (5.02837)

Nlocal:    5292.5 ave 5434 max 5164 min
Histogram: 1 1 0 1 1 0 0 0 0 2
Nghost:    7776.33 ave 8021 max 7650 min
Histogram: 2 2 0 0 0 0 1 0 0 1
Neighs:    302174 ave 318935 max 285548 min
Histogram: 1 0 1 0 2 0 0 0 1 1
FullNghs: 604349 ave 637517 max 571485 min
Histogram: 1 0 1 0 2 0 0 0 0 2

Total # of neighbors = 3626092
Ave neighs/atom = 114.19
Ave special neighs/atom = 5.09986
Neighbor list builds = 100
Dangerous builds = 100
velocity all zero linear
WARNING: Use special bonds = 0,1,1 with bond style fene (bond_fene.cpp:189)
Memory usage per processor = 18.891 Mbytes
Step sdpd_kin pTemp 
  424000 1.0245878e+09 1.0021826e+09 
  424100 1.0232294e+09 1.0004054e+09 
  424200 1.0221582e+09 9.994824e+08 
  424300 1.0257443e+09 1.0025547e+09 
  424400 1.0292502e+09 1.0066572e+09 
  424500 1.0299234e+09  1.00711e+09 
  424600 1.0305232e+09 1.007088e+09 
  424700 1.0263564e+09 1.0024528e+09 
  424800 1.014545e+09 9.9093196e+08 
  424900 1.0248093e+09 1.001391e+09 
  425000 1.0343739e+09 1.0104649e+09 
Loop time of 681.084 on 6 procs for 1000 steps with 31755 atoms

Pair  time (%) = 602.995 (88.5346)
Bond  time (%) = 0.774495 (0.113715)
Neigh time (%) = 5.12986 (0.75319)
Comm  time (%) = 37.7758 (5.54642)
Outpt time (%) = 2.10703 (0.309365)
Other time (%) = 32.3018 (4.7427)

Nlocal:    5292.5 ave 5433 max 5121 min
Histogram: 1 0 0 0 2 1 0 0 1 1
Nghost:    7720.33 ave 7977 max 7551 min
Histogram: 1 2 0 0 0 2 0 0 0 1
Neighs:    303251 ave 317577 max 284406 min
Histogram: 1 0 0 1 0 2 0 0 0 2
FullNghs: 606502 ave 636165 max 568515 min
Histogram: 1 0 0 1 1 1 0 0 0 2

Total # of neighbors = 3639010
Ave neighs/atom = 114.596
Ave special neighs/atom = 5.09986
Neighbor list builds = 100
Dangerous builds = 100
velocity all zero linear
WARNING: Use special bonds = 0,1,1 with bond style fene (bond_fene.cpp:189)
Memory usage per processor = 18.891 Mbytes
Step sdpd_kin pTemp 
  425000 1.0343739e+09 1.0104649e+09 
  425100 1.0218238e+09 9.9792988e+08 
  425200 1.0327455e+09 1.0087409e+09 
  425300 1.0275791e+09 1.0033707e+09 
  425400 1.0262585e+09 1.0020752e+09 
  425500 1.0253293e+09 1.0011005e+09 
  425600 1.0217654e+09 9.9780001e+08 
  425700 1.028459e+09 1.0044899e+09 
  425800 1.0255299e+09 1.0016299e+09 
  425900 1.0238355e+09 9.9997711e+08 
  426000 1.0265499e+09 1.0026949e+09 
Loop time of 669.353 on 6 procs for 1000 steps with 31755 atoms

Pair  time (%) = 603.773 (90.2024)
Bond  time (%) = 0.777586 (0.11617)
Neigh time (%) = 5.15217 (0.769724)
Comm  time (%) = 25.2105 (3.7664)
Outpt time (%) = 2.11514 (0.315998)
Other time (%) = 32.3252 (4.82932)

Nlocal:    5292.5 ave 5330 max 5212 min
Histogram: 1 0 0 0 0 0 2 0 1 2
Nghost:    7656.33 ave 7860 max 7475 min
Histogram: 1 0 0 2 1 0 1 0 0 1
Neighs:    302300 ave 304531 max 299802 min
Histogram: 1 1 1 0 0 0 0 1 0 2
FullNghs: 604600 ave 609062 max 600667 min
Histogram: 2 0 1 0 0 0 0 1 1 1

Total # of neighbors = 3627602
Ave neighs/atom = 114.237
Ave special neighs/atom = 5.09986
Neighbor list builds = 100
Dangerous builds = 100
velocity all zero linear
WARNING: Use special bonds = 0,1,1 with bond style fene (bond_fene.cpp:189)
Memory usage per processor = 18.891 Mbytes
Step sdpd_kin pTemp 
  426000 1.0265499e+09 1.0026949e+09 
  426100 1.0310918e+09 1.0062716e+09 
  426200 1.0362306e+09 1.0112155e+09 
  426300 1.0318531e+09 1.0069612e+09 
  426400 1.0279477e+09 1.0036785e+09 
  426500 1.039126e+09 1.014596e+09 
  426600 1.0236609e+09 9.9904198e+08 
  426700 1.0266288e+09 1.0025332e+09 
  426800 1.0296123e+09 1.0048642e+09 
  426900 1.0306644e+09 1.0058462e+09 
  427000 1.0330615e+09 1.0084687e+09 
Loop time of 656.122 on 6 procs for 1000 steps with 31755 atoms

Pair  time (%) = 602.673 (91.8537)
Bond  time (%) = 0.802533 (0.122315)
Neigh time (%) = 5.17751 (0.789107)
Comm  time (%) = 13.3773 (2.03884)
Outpt time (%) = 2.13169 (0.324892)
Other time (%) = 31.9605 (4.87112)

Nlocal:    5292.5 ave 5342 max 5190 min
Histogram: 1 0 0 0 0 0 0 3 1 1
Nghost:    7729 ave 7788 max 7632 min
Histogram: 1 0 0 1 0 0 1 0 1 2
Neighs:    303765 ave 308239 max 297721 min
Histogram: 1 0 0 0 2 0 0 1 1 1
FullNghs: 607530 ave 617294 max 594800 min
Histogram: 1 0 0 0 2 0 1 1 0 1

Total # of neighbors = 3645180
Ave neighs/atom = 114.791
Ave special neighs/atom = 5.09986
Neighbor list builds = 100
Dangerous builds = 100
velocity all zero linear
WARNING: Use special bonds = 0,1,1 with bond style fene (bond_fene.cpp:189)
Memory usage per processor = 18.891 Mbytes
Step sdpd_kin pTemp 
  427000 1.0330615e+09 1.0084687e+09 
  427100 1.027151e+09 1.0027442e+09 
  427200 1.0238262e+09 9.9945356e+08 
  427300 1.0285722e+09 1.0044355e+09 
  427400 1.0289278e+09 1.0049903e+09 
  427500 1.0306105e+09 1.0063523e+09 
  427600 1.0289431e+09 1.0052573e+09 
  427700 1.0287204e+09 1.0052191e+09 
  427800 1.0250112e+09 1.0017349e+09 
  427900 1.0296222e+09 1.0061817e+09 
  428000 1.0281462e+09 1.0051264e+09 
Loop time of 663.249 on 6 procs for 1000 steps with 31755 atoms

Pair  time (%) = 603.64 (91.0126)
Bond  time (%) = 0.783079 (0.118067)
Neigh time (%) = 5.1624 (0.77835)
Comm  time (%) = 18.7587 (2.8283)
Outpt time (%) = 2.12888 (0.320977)
Other time (%) = 32.7759 (4.94172)

Nlocal:    5292.5 ave 5341 max 5262 min
Histogram: 2 0 2 0 0 0 0 1 0 1
Nghost:    7786.83 ave 7952 max 7638 min
Histogram: 1 1 1 0 1 0 0 0 0 2
Neighs:    303353 ave 308056 max 297962 min
Histogram: 1 0 0 1 1 1 0 0 1 1
FullNghs: 606705 ave 615419 max 596385 min
Histogram: 1 0 0 1 1 1 0 0 1 1

Total # of neighbors = 3640232
Ave neighs/atom = 114.635
Ave special neighs/atom = 5.09986
Neighbor list builds = 100
Dangerous builds = 100
velocity all zero linear
WARNING: Use special bonds = 0,1,1 with bond style fene (bond_fene.cpp:189)
Memory usage per processor = 18.891 Mbytes
Step sdpd_kin pTemp 
  428000 1.0281461e+09 1.0051264e+09 
  428100 1.0270204e+09 1.0045267e+09 
  428200 1.0257463e+09 1.002802e+09 
  428300 1.0208766e+09 9.9811092e+08 
  428400 1.0297958e+09 1.0070125e+09 
  428500 1.0231214e+09 1.0009989e+09 
  428600 1.0292741e+09 1.0071594e+09 
  428700 1.0249728e+09 1.0028445e+09 
  428800 1.0340732e+09 1.0122906e+09 
  428900 1.0258605e+09 1.0043216e+09 
  429000 1.0405066e+09 1.0184333e+09 
Loop time of 665.669 on 6 procs for 1000 steps with 31755 atoms

Pair  time (%) = 603.604 (90.6763)
Bond  time (%) = 0.785134 (0.117947)
Neigh time (%) = 5.1641 (0.775775)
Comm  time (%) = 20.4081 (3.0658)
Outpt time (%) = 2.14059 (0.32157)
Other time (%) = 33.567 (5.04259)

Nlocal:    5292.5 ave 5394 max 5158 min
Histogram: 1 1 0 0 0 1 0 0 2 1
Nghost:    7713.33 ave 7974 max 7592 min
Histogram: 3 0 0 1 1 0 0 0 0 1
Neighs:    302458 ave 313197 max 289381 min
Histogram: 2 0 0 0 0 0 0 3 0 1
FullNghs: 604917 ave 626799 max 577101 min
Histogram: 1 1 0 0 0 0 0 3 0 1

Total # of neighbors = 3629500
Ave neighs/atom = 114.297
Ave special neighs/atom = 5.09986
Neighbor list builds = 100
Dangerous builds = 100
velocity all zero linear
WARNING: Use special bonds = 0,1,1 with bond style fene (bond_fene.cpp:189)
Memory usage per processor = 18.891 Mbytes
Step sdpd_kin pTemp 
  429000 1.0405065e+09 1.0184333e+09 
  429100 1.0273579e+09 1.0052503e+09 
  429200 1.0185235e+09 9.9630603e+08 
  429300 1.0235395e+09 1.0012185e+09 
  429400 1.0293827e+09 1.0079567e+09 
  429500 1.0141033e+09 9.9168118e+08 
  429600 1.0166124e+09 9.9425429e+08 
  429700 1.019533e+09 9.9677168e+08 
  429800 1.0273839e+09 1.0054468e+09 
  429900 1.0237812e+09 1.0015817e+09 
  430000 1.026094e+09 1.0034577e+09 
Loop time of 672.351 on 6 procs for 1000 steps with 31755 atoms

Pair  time (%) = 602.192 (89.5652)
Bond  time (%) = 0.771869 (0.114801)
Neigh time (%) = 5.12347 (0.762023)
Comm  time (%) = 29.372 (4.36855)
Outpt time (%) = 2.14379 (0.318849)
Other time (%) = 32.7476 (4.87061)

Nlocal:    5292.5 ave 5385 max 5088 min
Histogram: 1 0 0 0 0 1 1 0 0 3
Nghost:    7747.17 ave 7907 max 7609 min
Histogram: 2 0 0 0 2 0 0 1 0 1
Neighs:    303126 ave 314652 max 279647 min
Histogram: 1 0 0 0 0 1 1 0 1 2
FullNghs: 606252 ave 629988 max 558644 min
Histogram: 1 0 0 0 0 1 1 0 1 2

Total # of neighbors = 3637510
Ave neighs/atom = 114.549
Ave special neighs/atom = 5.09986
Neighbor list builds = 100
Dangerous builds = 99
velocity all zero linear
WARNING: Use special bonds = 0,1,1 with bond style fene (bond_fene.cpp:189)
Memory usage per processor = 18.891 Mbytes
Step sdpd_kin pTemp 
  430000 1.026094e+09 1.0034577e+09 
  430100 1.0180115e+09 9.9554856e+08 
  430200 1.0231075e+09 1.0013505e+09 
  430300 1.0243757e+09 1.0031125e+09 
  430400 1.0264393e+09 1.0050031e+09 
  430500 1.0182259e+09 9.9672639e+08 
  430600 1.0251898e+09 1.0034465e+09 
  430700 1.0207807e+09 9.9922941e+08 
  430800 1.0252609e+09 1.0035805e+09 
  430900 1.0215361e+09 1.0000476e+09 
  431000 1.0261074e+09 1.0050946e+09 
Loop time of 673.642 on 6 procs for 1000 steps with 31755 atoms

Pair  time (%) = 603.204 (89.5437)
Bond  time (%) = 0.771636 (0.114547)
Neigh time (%) = 5.13109 (0.761694)
Comm  time (%) = 29.729 (4.41317)
Outpt time (%) = 2.11849 (0.314483)
Other time (%) = 32.6881 (4.85244)

Nlocal:    5292.5 ave 5429 max 5184 min
Histogram: 1 1 1 0 1 0 0 1 0 1
Nghost:    7751 ave 7928 max 7317 min
Histogram: 1 0 0 0 0 1 0 0 2 2
Neighs:    302453 ave 315514 max 292216 min
Histogram: 2 0 0 2 0 0 0 0 0 2
FullNghs: 604906 ave 630940 max 585184 min
Histogram: 2 0 0 2 0 0 0 0 0 2

Total # of neighbors = 3629438
Ave neighs/atom = 114.295
Ave special neighs/atom = 5.09986
Neighbor list builds = 100
Dangerous builds = 100
velocity all zero linear
WARNING: Use special bonds = 0,1,1 with bond style fene (bond_fene.cpp:189)
Memory usage per processor = 18.891 Mbytes
Step sdpd_kin pTemp 
  431000 1.0261071e+09 1.0050946e+09 
  431100 1.0271857e+09 1.0060134e+09 
  431200 1.0176904e+09 9.9619373e+08 
  431300 1.017479e+09 9.9653163e+08 
  431400 1.029176e+09  1.00795e+09 
  431500 1.0280222e+09 1.0069458e+09 
  431600 1.0281337e+09 1.0069677e+09 
  431700 1.0243799e+09 1.0024939e+09 
  431800 1.0230906e+09 1.0011582e+09 
  431900 1.0181874e+09 9.9635893e+08 
  432000 1.0251485e+09 1.0033671e+09 
Loop time of 674.661 on 6 procs for 1000 steps with 31755 atoms

Pair  time (%) = 600.989 (89.0801)
Bond  time (%) = 0.772801 (0.114547)
Neigh time (%) = 5.12277 (0.75931)
Comm  time (%) = 32.5998 (4.83203)
Outpt time (%) = 2.12746 (0.315338)
Other time (%) = 33.0497 (4.89871)

Nlocal:    5292.5 ave 5415 max 5117 min
Histogram: 1 0 0 0 1 1 0 1 1 1
Nghost:    7775.17 ave 8091 max 7625 min
Histogram: 2 0 1 2 0 0 0 0 0 1
Neighs:    302596 ave 315730 max 283750 min
Histogram: 1 0 0 0 1 1 0 1 1 1
FullNghs: 605192 ave 631244 max 567527 min
Histogram: 1 0 0 0 1 1 0 1 1 1

Total # of neighbors = 3631154
Ave neighs/atom = 114.349
Ave special neighs/atom = 5.09986
Neighbor list builds = 100
Dangerous builds = 100
velocity all zero linear
WARNING: Use special bonds = 0,1,1 with bond style fene (bond_fene.cpp:189)
Memory usage per processor = 18.891 Mbytes
Step sdpd_kin pTemp 
  432000 1.025148e+09 1.0033671e+09 
  432100 1.0208106e+09 9.9848557e+08 
  432200 1.0269914e+09 1.0048101e+09 
  432300 1.0262605e+09 1.0040953e+09 
  432400 1.0290563e+09 1.0069163e+09 
  432500 1.0208045e+09 9.9888492e+08 
  432600 1.0232265e+09 1.001454e+09 
  432700 1.0209351e+09 9.9879881e+08 
  432800 1.0285619e+09 1.0061434e+09 
  432900 1.0237684e+09 1.0018165e+09 
  433000 1.0334365e+09 1.0109119e+09 
Loop time of 674.106 on 6 procs for 1000 steps with 31755 atoms

Pair  time (%) = 601.787 (89.2718)
Bond  time (%) = 0.772983 (0.114668)
Neigh time (%) = 5.12375 (0.76008)
Comm  time (%) = 31.1038 (4.61408)
Outpt time (%) = 2.12557 (0.315317)
Other time (%) = 33.1931 (4.92401)

Nlocal:    5292.5 ave 5403 max 5078 min
Histogram: 1 0 1 0 0 0 0 0 2 2
Nghost:    7730.83 ave 7914 max 7595 min
Histogram: 1 1 0 2 0 0 1 0 0 1
Neighs:    301814 ave 313785 max 276047 min
Histogram: 1 0 0 0 1 0 0 1 0 3
FullNghs: 603627 ave 627649 max 552305 min
Histogram: 1 0 0 0 1 0 0 1 0 3

Total # of neighbors = 3621764
Ave neighs/atom = 114.053
Ave special neighs/atom = 5.09986
Neighbor list builds = 100
Dangerous builds = 100
velocity all zero linear
WARNING: Use special bonds = 0,1,1 with bond style fene (bond_fene.cpp:189)
Memory usage per processor = 18.891 Mbytes
Step sdpd_kin pTemp 
  433000 1.0334362e+09 1.0109119e+09 
  433100 1.0148371e+09 9.9229992e+08 
  433200 1.0264132e+09 1.0036414e+09 
  433300 1.0320804e+09 1.0093841e+09 
  433400 1.0227484e+09 1.0001032e+09 
  433500 1.0246774e+09 1.0020958e+09 
  433600 1.0214412e+09 9.9871657e+08 
  433700 1.0198499e+09 9.9717931e+08 
  433800 1.0243358e+09 1.0017936e+09 
  433900 1.0321626e+09 1.0095067e+09 
  434000 1.0254823e+09 1.0029004e+09 
Loop time of 677.827 on 6 procs for 1000 steps with 31755 atoms

Pair  time (%) = 601.156 (88.6888)
Bond  time (%) = 0.768362 (0.113357)
Neigh time (%) = 5.13359 (0.757361)
Comm  time (%) = 35.0114 (5.16524)
Outpt time (%) = 2.1199 (0.312749)
Other time (%) = 33.6374 (4.96254)

Nlocal:    5292.5 ave 5443 max 5094 min
Histogram: 1 0 0 0 2 0 1 0 0 2
Nghost:    7834.67 ave 8039 max 7642 min
Histogram: 1 0 1 0 1 2 0 0 0 1
Neighs:    302875 ave 322956 max 278625 min
Histogram: 1 0 0 1 1 0 0 2 0 1
FullNghs: 605751 ave 646021 max 556412 min
Histogram: 1 0 0 1 1 0 0 2 0 1

Total # of neighbors = 3634504
Ave neighs/atom = 114.455
Ave special neighs/atom = 5.09986
Neighbor list builds = 100
Dangerous builds = 100
velocity all zero linear
WARNING: Use special bonds = 0,1,1 with bond style fene (bond_fene.cpp:189)
Memory usage per processor = 18.891 Mbytes
Step sdpd_kin pTemp 
  434000 1.0254819e+09 1.0029004e+09 
  434100 1.0316825e+09 1.0092811e+09 
  434200 1.0215326e+09 9.9873682e+08 
  434300 1.0218249e+09 9.991007e+08 
  434400 1.0299862e+09 1.0070971e+09 
  434500 1.0279468e+09 1.0048015e+09 
  434600 1.0240359e+09 1.0008953e+09 
  434700 1.0311727e+09 1.0075625e+09 
  434800 1.0333426e+09 1.0107048e+09 
  434900 1.0288435e+09 1.0059247e+09 
  435000 1.0230195e+09 1.0007741e+09 
Loop time of 683.977 on 6 procs for 1000 steps with 31755 atoms

Pair  time (%) = 604.062 (88.3161)
Bond  time (%) = 0.772453 (0.112935)
Neigh time (%) = 5.13041 (0.750086)
Comm  time (%) = 38.2469 (5.59183)
Outpt time (%) = 2.12536 (0.310736)
Other time (%) = 33.64 (4.9183)

Nlocal:    5292.5 ave 5353 max 5187 min
Histogram: 1 0 0 1 0 1 0 0 0 3
Nghost:    7694 ave 7881 max 7496 min
Histogram: 1 0 0 1 2 0 0 0 1 1
Neighs:    302709 ave 314675 max 290861 min
Histogram: 1 0 0 2 0 0 1 1 0 1
FullNghs: 605419 ave 630190 max 581436 min
Histogram: 1 0 0 2 0 0 1 1 0 1

Total # of neighbors = 3632512
Ave neighs/atom = 114.392
Ave special neighs/atom = 5.09986
Neighbor list builds = 100
Dangerous builds = 100
velocity all zero linear
WARNING: Use special bonds = 0,1,1 with bond style fene (bond_fene.cpp:189)
Memory usage per processor = 18.891 Mbytes
Step sdpd_kin pTemp 
  435000 1.0230194e+09 1.0007741e+09 
  435100 1.0272413e+09 1.0051906e+09 
  435200 1.0217595e+09 1.0000321e+09 
  435300 1.0193875e+09 9.9809115e+08 
  435400 1.019282e+09 9.9781059e+08 
  435500 1.023673e+09 1.0027346e+09 
  435600 1.0230107e+09 1.0018735e+09 
  435700 1.0304411e+09 1.0095292e+09 
  435800 1.0219165e+09 1.0008018e+09 
  435900 1.0231368e+09 1.0019517e+09 
  436000 1.0213517e+09 1.0011071e+09 
Loop time of 663.849 on 6 procs for 1000 steps with 31755 atoms

Pair  time (%) = 601.243 (90.5692)
Bond  time (%) = 0.788657 (0.118801)
Neigh time (%) = 5.16801 (0.778492)
Comm  time (%) = 21.4223 (3.22699)
Outpt time (%) = 2.12888 (0.320687)
Other time (%) = 33.0985 (4.98585)

Nlocal:    5292.5 ave 5411 max 5186 min
Histogram: 1 0 0 1 1 2 0 0 0 1
Nghost:    7806.5 ave 8132 max 7643 min
Histogram: 3 0 1 0 0 0 1 0 0 1
Neighs:    302631 ave 314816 max 291095 min
Histogram: 1 0 0 0 2 2 0 0 0 1
FullNghs: 605263 ave 628850 max 583211 min
Histogram: 1 0 0 0 3 1 0 0 0 1

Total # of neighbors = 3631576
Ave neighs/atom = 114.362
Ave special neighs/atom = 5.09986
Neighbor list builds = 100
Dangerous builds = 100
velocity all zero linear
WARNING: Use special bonds = 0,1,1 with bond style fene (bond_fene.cpp:189)
Memory usage per processor = 18.891 Mbytes
Step sdpd_kin pTemp 
  436000 1.0213517e+09 1.0011071e+09 
  436100 1.0143951e+09 9.9415493e+08 
  436200 1.0304181e+09 1.0098577e+09 
  436300 1.012772e+09 9.9243832e+08 
  436400 1.0269824e+09 1.0063871e+09 
  436500 1.0275427e+09 1.0072435e+09 
  436600 1.0173471e+09 9.9710058e+08 
  436700 1.030356e+09 1.0093991e+09 
  436800 1.0247487e+09 1.0037552e+09 
  436900 1.0230135e+09 1.0018578e+09 
  437000 1.0274061e+09 1.0063231e+09 
Loop time of 673.051 on 6 procs for 1000 steps with 31755 atoms

Pair  time (%) = 602.431 (89.5075)
Bond  time (%) = 0.785575 (0.116718)
Neigh time (%) = 5.14573 (0.764537)
Comm  time (%) = 29.1954 (4.33777)
Outpt time (%) = 2.1107 (0.313601)
Other time (%) = 33.3825 (4.95987)

Nlocal:    5292.5 ave 5462 max 5198 min
Histogram: 1 1 1 2 0 0 0 0 0 1
Nghost:    7811.33 ave 7964 max 7711 min
Histogram: 2 1 0 1 0 0 0 1 0 1
Neighs:    303315 ave 324164 max 291445 min
Histogram: 1 0 3 1 0 0 0 0 0 1
FullNghs: 606631 ave 648622 max 582300 min
Histogram: 1 0 3 1 0 0 0 0 0 1

Total # of neighbors = 3639784
Ave neighs/atom = 114.621
Ave special neighs/atom = 5.09986
Neighbor list builds = 100
Dangerous builds = 100
velocity all zero linear
WARNING: Use special bonds = 0,1,1 with bond style fene (bond_fene.cpp:189)
Memory usage per processor = 18.1281 Mbytes
Step sdpd_kin pTemp 
  437000 1.027406e+09 1.0063231e+09 
  437100 1.0265515e+09 1.0054558e+09 
  437200 1.022769e+09 1.0014227e+09 
  437300 1.0209771e+09 9.999329e+08 
  437400 1.0228426e+09 1.0016707e+09 
  437500 1.0284559e+09 1.0074171e+09 
  437600 1.0190986e+09 9.9776155e+08 
  437700 1.024099e+09 1.0030469e+09 
  437800 1.0323059e+09 1.0113543e+09 
  437900 1.0341264e+09 1.0123245e+09 
  438000 1.0211432e+09 9.9984904e+08 
Loop time of 683.904 on 6 procs for 1000 steps with 31755 atoms

Pair  time (%) = 601.556 (87.9591)
Bond  time (%) = 0.786892 (0.115059)
Neigh time (%) = 5.17829 (0.757165)
Comm  time (%) = 40.634 (5.94148)
Outpt time (%) = 2.13394 (0.312023)
Other time (%) = 33.6153 (4.9152)

Nlocal:    5292.5 ave 5594 max 5117 min
Histogram: 2 0 1 0 2 0 0 0 0 1
Nghost:    7725.5 ave 7896 max 7490 min
Histogram: 1 0 0 0 2 0 0 1 1 1
Neighs:    302088 ave 330479 max 286459 min
Histogram: 1 1 1 1 1 0 0 0 0 1
FullNghs: 604176 ave 663166 max 571773 min
Histogram: 1 1 1 1 1 0 0 0 0 1

Total # of neighbors = 3625054
Ave neighs/atom = 114.157
Ave special neighs/atom = 5.09986
Neighbor list builds = 100
Dangerous builds = 100
velocity all zero linear
WARNING: Use special bonds = 0,1,1 with bond style fene (bond_fene.cpp:189)
Memory usage per processor = 18.1281 Mbytes
Step sdpd_kin pTemp 
  438000 1.0211429e+09 9.9984904e+08 
  438100 1.0271389e+09 1.0056115e+09 
  438200 1.0235791e+09 1.0020112e+09 
  438300 1.0264746e+09 1.0047776e+09 
  438400 1.0257889e+09 1.0040351e+09 
  438500 1.0343133e+09 1.0126967e+09 
  438600 1.0247224e+09 1.0026226e+09 
  438700 1.0207181e+09 9.9886987e+08 
  438800 1.0197098e+09 9.9798474e+08 
  438900 1.0256552e+09 1.0034463e+09 
  439000 1.0264741e+09 1.0044126e+09 
Loop time of 683.562 on 6 procs for 1000 steps with 31755 atoms

Pair  time (%) = 598.697 (87.5849)
Bond  time (%) = 0.780398 (0.114166)
Neigh time (%) = 5.13477 (0.751179)
Comm  time (%) = 43.8264 (6.41147)
Outpt time (%) = 2.1154 (0.309468)
Other time (%) = 33.0079 (4.8288)

Nlocal:    5292.5 ave 5420 max 5081 min
Histogram: 1 0 0 0 0 1 2 0 1 1
Nghost:    7865.83 ave 8051 max 7674 min
Histogram: 2 0 0 1 0 0 0 1 0 2
Neighs:    302056 ave 316341 max 283375 min
Histogram: 1 0 0 0 0 1 3 0 0 1
FullNghs: 604112 ave 633441 max 566955 min
Histogram: 1 0 0 0 0 2 2 0 0 1

Total # of neighbors = 3624672
Ave neighs/atom = 114.145
Ave special neighs/atom = 5.09986
Neighbor list builds = 100
Dangerous builds = 100
velocity all zero linear
WARNING: Use special bonds = 0,1,1 with bond style fene (bond_fene.cpp:189)
Memory usage per processor = 18.891 Mbytes
Step sdpd_kin pTemp 
  439000 1.026474e+09 1.0044126e+09 
  439100 1.0238853e+09 1.001923e+09 
  439200 1.0225741e+09 1.0006733e+09 
  439300 1.0295149e+09 1.0074904e+09 
  439400 1.0199122e+09 9.9798573e+08 
  439500 1.0362816e+09 1.0139017e+09 
  439600 1.0248752e+09 1.0035231e+09 
  439700 1.0214857e+09 9.9986173e+08 
  439800 1.023578e+09 1.0017839e+09 
  439900 1.0244499e+09 1.0029477e+09 
  440000 1.0228865e+09 1.0018851e+09 
Loop time of 665.363 on 6 procs for 1000 steps with 31755 atoms

Pair  time (%) = 600.484 (90.249)
Bond  time (%) = 0.781713 (0.117487)
Neigh time (%) = 5.15364 (0.77456)
Comm  time (%) = 22.9866 (3.45475)
Outpt time (%) = 2.14749 (0.322755)
Other time (%) = 33.8098 (5.08141)

Nlocal:    5292.5 ave 5379 max 5165 min
Histogram: 1 0 0 0 1 2 0 0 0 2
Nghost:    7826 ave 7972 max 7688 min
Histogram: 1 1 0 1 1 0 0 0 1 1
Neighs:    301877 ave 311804 max 290081 min
Histogram: 1 0 0 1 1 1 0 0 0 2
FullNghs: 603754 ave 622323 max 581970 min
Histogram: 1 0 0 1 2 0 0 0 0 2

Total # of neighbors = 3622524
Ave neighs/atom = 114.077
Ave special neighs/atom = 5.09986
Neighbor list builds = 100
Dangerous builds = 99
velocity all zero linear
WARNING: Use special bonds = 0,1,1 with bond style fene (bond_fene.cpp:189)
Memory usage per processor = 18.891 Mbytes
Step sdpd_kin pTemp 
  440000 1.0228865e+09 1.0018851e+09 
  440100 1.0213642e+09 9.9955834e+08 
  440200 1.0203143e+09 9.9871039e+08 
  440300 1.028214e+09 1.0066937e+09 
  440400 1.0226522e+09 1.0007667e+09 
  440500 1.0220949e+09 1.0006458e+09 
  440600 1.0261884e+09 1.0050273e+09 
  440700 1.0182775e+09 9.966801e+08 
  440800 1.0325875e+09 1.0108376e+09 
  440900 1.0306771e+09 1.0089336e+09 
  441000 1.0257974e+09 1.0035137e+09 
Loop time of 664.825 on 6 procs for 1000 steps with 31755 atoms

Pair  time (%) = 600.408 (90.3108)
Bond  time (%) = 0.788394 (0.118587)
Neigh time (%) = 5.1609 (0.77628)
Comm  time (%) = 23.148 (3.48182)
Outpt time (%) = 2.11893 (0.31872)
Other time (%) = 33.2001 (4.99382)

Nlocal:    5292.5 ave 5419 max 5227 min
Histogram: 2 1 1 0 0 0 1 0 0 1
Nghost:    7805.33 ave 7941 max 7625 min
Histogram: 1 1 0 0 0 0 1 1 0 2
Neighs:    301923 ave 316110 max 293875 min
Histogram: 1 2 0 1 0 1 0 0 0 1
FullNghs: 603846 ave 632808 max 586470 min
Histogram: 1 2 0 1 0 1 0 0 0 1

Total # of neighbors = 3623076
Ave neighs/atom = 114.095
Ave special neighs/atom = 5.09986
Neighbor list builds = 100
Dangerous builds = 100
velocity all zero linear
WARNING: Use special bonds = 0,1,1 with bond style fene (bond_fene.cpp:189)
Memory usage per processor = 18.891 Mbytes
Step sdpd_kin pTemp 
  441000 1.0257974e+09 1.0035137e+09 
  441100 1.0296705e+09 1.0080901e+09 
  441200 1.0249252e+09 1.0030415e+09 
  441300 1.0307673e+09 1.0087683e+09 
  441400 1.0295382e+09 1.0074131e+09 
  441500 1.0237842e+09 1.0018132e+09 
  441600  1.02654e+09 1.0042019e+09 
  441700 1.0196513e+09 9.9706889e+08 
  441800 1.0307629e+09 1.0076918e+09 
  441900 1.0248945e+09 1.0020042e+09 
  442000  1.02492e+09 1.0019365e+09 
Loop time of 660.166 on 6 procs for 1000 steps with 31755 atoms

Pair  time (%) = 599.75 (90.8484)
Bond  time (%) = 0.781041 (0.11831)
Neigh time (%) = 5.1382 (0.77832)
Comm  time (%) = 20.1314 (3.04944)
Outpt time (%) = 2.11479 (0.320342)
Other time (%) = 32.2501 (4.88515)

Nlocal:    5292.5 ave 5404 max 5188 min
Histogram: 1 0 1 1 0 1 0 0 1 1
Nghost:    7822 ave 7952 max 7683 min
Histogram: 1 0 0 1 1 1 0 1 0 1
Neighs:    302318 ave 313281 max 293880 min
Histogram: 1 2 0 1 0 0 0 0 0 2
FullNghs: 604637 ave 626050 max 587572 min
Histogram: 1 2 0 1 0 0 0 0 0 2

Total # of neighbors = 3627822
Ave neighs/atom = 114.244
Ave special neighs/atom = 5.09986
Neighbor list builds = 100
Dangerous builds = 100
velocity all zero linear
WARNING: Use special bonds = 0,1,1 with bond style fene (bond_fene.cpp:189)
Memory usage per processor = 18.891 Mbytes
Step sdpd_kin pTemp 
  442000  1.02492e+09 1.0019365e+09 
  442100 1.0271237e+09 1.0047975e+09 
  442200 1.0213225e+09 9.9902181e+08 
  442300 1.0288063e+09 1.0068357e+09 
  442400 1.0223242e+09 1.0005605e+09 
  442500 1.0298035e+09 1.0077167e+09 
  442600 1.0222746e+09 1.0006738e+09 
  442700 1.0327082e+09 1.0113542e+09 
  442800 1.0163435e+09 9.9466134e+08 
  442900 1.0218778e+09 1.0008004e+09 
  443000 1.0235219e+09 1.0019705e+09 
Loop time of 656.411 on 6 procs for 1000 steps with 31755 atoms

Pair  time (%) = 599.126 (91.273)
Bond  time (%) = 0.791726 (0.120614)
Neigh time (%) = 5.13699 (0.782588)
Comm  time (%) = 16.8956 (2.57394)
Outpt time (%) = 2.1293 (0.324385)
Other time (%) = 32.3313 (4.92546)

Nlocal:    5292.5 ave 5346 max 5265 min
Histogram: 3 1 0 0 0 0 0 1 0 1
Nghost:    7815.67 ave 7928 max 7686 min
Histogram: 1 0 1 0 0 2 0 0 1 1
Neighs:    301004 ave 308472 max 295906 min
Histogram: 2 1 1 0 0 0 0 0 0 2
FullNghs: 602008 ave 616419 max 592385 min
Histogram: 3 0 1 0 0 0 0 0 0 2

Total # of neighbors = 3612046
Ave neighs/atom = 113.747
Ave special neighs/atom = 5.09986
Neighbor list builds = 100
Dangerous builds = 100
velocity all zero linear
WARNING: Use special bonds = 0,1,1 with bond style fene (bond_fene.cpp:189)
Memory usage per processor = 18.891 Mbytes
Step sdpd_kin pTemp 
  443000 1.0235219e+09 1.0019705e+09 
  443100 1.0263949e+09 1.0052546e+09 
  443200 1.0281066e+09 1.0065977e+09 
  443300 1.0264905e+09 1.0048111e+09 
  443400 1.0316426e+09 1.0106496e+09 
  443500  1.01612e+09 9.9507329e+08 
  443600 1.0207324e+09 9.9917859e+08 
  443700 1.0240669e+09 1.0023204e+09 
  443800 1.0281918e+09 1.0063095e+09 
  443900 1.0259587e+09 1.0038187e+09 
  444000 1.0248482e+09 1.0024866e+09 
Loop time of 658.816 on 6 procs for 1000 steps with 31755 atoms

Pair  time (%) = 598.942 (90.9118)
Bond  time (%) = 0.784085 (0.119014)
Neigh time (%) = 5.1526 (0.782099)
Comm  time (%) = 18.5685 (2.81846)
Outpt time (%) = 2.12306 (0.322254)
Other time (%) = 33.2465 (5.0464)

Nlocal:    5292.5 ave 5396 max 5130 min
Histogram: 1 0 0 0 0 2 1 0 0 2
Nghost:    7842.5 ave 8042 max 7639 min
Histogram: 1 0 0 0 2 2 0 0 0 1
Neighs:    302591 ave 313513 max 286703 min
Histogram: 1 0 0 0 1 1 0 1 1 1
FullNghs: 605182 ave 627565 max 574006 min
Histogram: 1 0 0 0 1 1 1 0 1 1

Total # of neighbors = 3631090
Ave neighs/atom = 114.347
Ave special neighs/atom = 5.09986
Neighbor list builds = 100
Dangerous builds = 100
velocity all zero linear
WARNING: Use special bonds = 0,1,1 with bond style fene (bond_fene.cpp:189)
Memory usage per processor = 18.1281 Mbytes
Step sdpd_kin pTemp 
  444000 1.0248482e+09 1.0024866e+09 
  444100 1.0307656e+09 1.0083584e+09 
  444200 1.0308525e+09 1.0077607e+09 
  444300 1.0252865e+09 1.0027535e+09 
  444400 1.0349101e+09 1.0121936e+09 
  444500 1.0179972e+09 9.9503696e+08 
  444600 1.0203134e+09 9.9726599e+08 
  444700 1.021348e+09 9.9837271e+08 
  444800 1.0215137e+09 9.9861442e+08 
  444900 1.030084e+09 1.0071063e+09 
  445000 1.0217048e+09 9.981059e+08 
Loop time of 672.72 on 6 procs for 1000 steps with 31755 atoms

Pair  time (%) = 600.789 (89.3075)
Bond  time (%) = 0.769825 (0.114435)
Neigh time (%) = 5.12019 (0.761117)
Comm  time (%) = 31.4031 (4.66809)
Outpt time (%) = 2.10867 (0.313454)
Other time (%) = 32.5285 (4.83537)

Nlocal:    5292.5 ave 5453 max 5181 min
Histogram: 1 1 1 0 0 2 0 0 0 1
Nghost:    7852.67 ave 7933 max 7660 min
Histogram: 1 0 0 0 0 1 0 0 3 1
Neighs:    302350 ave 321594 max 286878 min
Histogram: 1 0 1 1 1 1 0 0 0 1
FullNghs: 604700 ave 642685 max 574440 min
Histogram: 1 0 1 1 1 1 0 0 0 1

Total # of neighbors = 3628202
Ave neighs/atom = 114.256
Ave special neighs/atom = 5.09986
Neighbor list builds = 100
Dangerous builds = 100
velocity all zero linear
WARNING: Use special bonds = 0,1,1 with bond style fene (bond_fene.cpp:189)
Memory usage per processor = 18.891 Mbytes
Step sdpd_kin pTemp 
  445000 1.0217046e+09 9.981059e+08 
  445100 1.0206758e+09 9.972743e+08 
  445200 1.022496e+09 9.999384e+08 
  445300 1.0351764e+09 1.0123529e+09 
  445400 1.0280989e+09 1.0054008e+09 
  445500 1.0230222e+09 1.0004619e+09 
  445600 1.0218427e+09 9.989606e+08 
  445700 1.0337427e+09 1.0112677e+09 
  445800 1.0316809e+09 1.0092706e+09 
  445900 1.0265298e+09 1.0036523e+09 
  446000 1.0276342e+09 1.0043953e+09 
Loop time of 687.306 on 6 procs for 1000 steps with 31755 atoms

Pair  time (%) = 602.804 (87.7054)
Bond  time (%) = 0.768914 (0.111874)
Neigh time (%) = 5.11853 (0.744723)
Comm  time (%) = 44.2246 (6.43448)
Outpt time (%) = 2.09944 (0.305459)
Other time (%) = 32.2904 (4.6981)

Nlocal:    5292.5 ave 5540 max 5177 min
Histogram: 2 1 1 0 1 0 0 0 0 1
Nghost:    7725 ave 7912 max 7605 min
Histogram: 1 0 3 0 0 1 0 0 0 1
Neighs:    303438 ave 330266 max 290991 min
Histogram: 2 1 1 0 1 0 0 0 0 1
FullNghs: 606876 ave 660698 max 581335 min
Histogram: 1 2 1 0 1 0 0 0 0 1

Total # of neighbors = 3641256
Ave neighs/atom = 114.667
Ave special neighs/atom = 5.09986
Neighbor list builds = 100
Dangerous builds = 100
velocity all zero linear
WARNING: Use special bonds = 0,1,1 with bond style fene (bond_fene.cpp:189)
Memory usage per processor = 18.891 Mbytes
Step sdpd_kin pTemp 
  446000 1.027634e+09 1.0043953e+09 
  446100 1.0345317e+09 1.0113861e+09 
  446200 1.0291908e+09 1.0061346e+09 
  446300 1.0234853e+09 1.0003705e+09 
  446400 1.0175652e+09 9.9470169e+08 
  446500 1.0339974e+09 1.0110376e+09 
  446600 1.0321115e+09 1.0095024e+09 
  446700 1.0327119e+09 1.0103292e+09 
  446800 1.0237369e+09 1.0019105e+09 
  446900 1.0204451e+09 9.9844867e+08 
  447000 1.0165188e+09 9.9439919e+08 
Loop time of 689.245 on 6 procs for 1000 steps with 31755 atoms

Pair  time (%) = 602.461 (87.4088)
Bond  time (%) = 0.780644 (0.113261)
Neigh time (%) = 5.14262 (0.746124)
Comm  time (%) = 45.7613 (6.63934)
Outpt time (%) = 2.10219 (0.304999)
Other time (%) = 32.9971 (4.78742)

Nlocal:    5292.5 ave 5491 max 5185 min
Histogram: 2 0 1 1 1 0 0 0 0 1
Nghost:    7744.5 ave 7956 max 7529 min
Histogram: 1 0 0 2 1 0 0 0 1 1
Neighs:    302651 ave 325926 max 292137 min
Histogram: 1 2 1 1 0 0 0 0 0 1
FullNghs: 605303 ave 653808 max 585821 min
Histogram: 2 1 2 0 0 0 0 0 0 1

Total # of neighbors = 3631816
Ave neighs/atom = 114.37
Ave special neighs/atom = 5.09986
Neighbor list builds = 100
Dangerous builds = 100
velocity all zero linear
WARNING: Use special bonds = 0,1,1 with bond style fene (bond_fene.cpp:189)
Memory usage per processor = 18.891 Mbytes
Step sdpd_kin pTemp 
  447000 1.0165187e+09 9.9439919e+08 
  447100 1.0271289e+09 1.0047425e+09 
  447200 1.0323691e+09 1.0104628e+09 
  447300 1.0288271e+09 1.006813e+09 
  447400 1.0264688e+09 1.0043044e+09 
  447500 1.0340419e+09 1.011516e+09 
  447600 1.0283564e+09 1.0055533e+09 
  447700 1.0275497e+09 1.0046907e+09 
  447800 1.0234386e+09 1.0004079e+09 
  447900 1.022833e+09 1.0005177e+09 
  448000 1.0313391e+09 1.0094657e+09 
Loop time of 678.695 on 6 procs for 1000 steps with 31755 atoms

Pair  time (%) = 599.941 (88.3963)
Bond  time (%) = 0.769634 (0.113399)
Neigh time (%) = 5.13085 (0.755987)
Comm  time (%) = 37.98 (5.59602)
Outpt time (%) = 2.09731 (0.30902)
Other time (%) = 32.7763 (4.82931)

Nlocal:    5292.5 ave 5413 max 5169 min
Histogram: 1 1 0 1 0 0 1 0 1 1
Nghost:    7808.83 ave 7903 max 7681 min
Histogram: 1 0 0 0 1 1 0 2 0 1
Neighs:    301497 ave 317551 max 290392 min
Histogram: 2 1 0 0 0 1 1 0 0 1
FullNghs: 602993 ave 633529 max 581062 min
Histogram: 1 2 0 0 0 1 1 0 0 1

Total # of neighbors = 3617960
Ave neighs/atom = 113.934
Ave special neighs/atom = 5.09986
Neighbor list builds = 100
Dangerous builds = 100
velocity all zero linear
WARNING: Use special bonds = 0,1,1 with bond style fene (bond_fene.cpp:189)
Memory usage per processor = 18.1281 Mbytes
Step sdpd_kin pTemp 
  448000 1.031339e+09 1.0094657e+09 
  448100 1.0271543e+09 1.0049981e+09 
  448200 1.0215265e+09 9.9922898e+08 
  448300 1.0243555e+09 1.0019863e+09 
  448400 1.0217843e+09 9.9973026e+08 
  448500 1.0220046e+09 9.9999901e+08 
  448600 1.0271275e+09 1.0056319e+09 
  448700 1.0276118e+09 1.0060215e+09 
  448800 1.0295849e+09 1.0081517e+09 
  448900 1.0271482e+09 1.0056771e+09 
  449000 1.0206937e+09 9.9902877e+08 
Loop time of 663.025 on 6 procs for 1000 steps with 31755 atoms

Pair  time (%) = 599.743 (90.4556)
Bond  time (%) = 0.778862 (0.117471)
Neigh time (%) = 5.1549 (0.777482)
Comm  time (%) = 21.6342 (3.26295)
Outpt time (%) = 2.09721 (0.316309)
Other time (%) = 33.6164 (5.07016)

Nlocal:    5292.5 ave 5347 max 5143 min
Histogram: 1 0 0 0 0 0 1 0 1 3
Nghost:    7889.17 ave 7974 max 7686 min
Histogram: 1 0 0 0 0 0 0 2 1 2
Neighs:    301808 ave 306224 max 290464 min
Histogram: 1 0 0 0 0 0 1 0 2 2
FullNghs: 603615 ave 613810 max 578447 min
Histogram: 1 0 0 0 0 0 1 1 0 3

Total # of neighbors = 3621690
Ave neighs/atom = 114.051
Ave special neighs/atom = 5.09986
Neighbor list builds = 100
Dangerous builds = 100
velocity all zero linear
WARNING: Use special bonds = 0,1,1 with bond style fene (bond_fene.cpp:189)
Memory usage per processor = 18.891 Mbytes
Step sdpd_kin pTemp 
  449000 1.0206937e+09 9.9902877e+08 
  449100 1.0236605e+09 1.0018577e+09 
  449200 1.0268639e+09 1.004998e+09 
  449300 1.0287706e+09 1.0073896e+09 
  449400 1.0177553e+09 9.9671243e+08 
  449500 1.0266461e+09 1.0055954e+09 
  449600 1.0211799e+09 9.9962966e+08 
  449700 1.0174097e+09 9.9558962e+08 
  449800 1.0281935e+09 1.006105e+09 
  449900 1.019646e+09 9.9803376e+08 
  450000 1.0248676e+09 1.0031981e+09 
Loop time of 658.061 on 6 procs for 1000 steps with 31755 atoms

Pair  time (%) = 600.548 (91.2602)
Bond  time (%) = 0.794872 (0.12079)
Neigh time (%) = 5.15162 (0.782849)
Comm  time (%) = 16.5966 (2.52205)
Outpt time (%) = 2.11715 (0.321725)
Other time (%) = 32.8528 (4.99236)

Nlocal:    5292.5 ave 5395 max 5172 min
Histogram: 1 0 1 0 1 1 0 0 1 1
Nghost:    7823.17 ave 7992 max 7617 min
Histogram: 1 0 0 1 1 0 0 2 0 1
Neighs:    302413 ave 309831 max 291710 min
Histogram: 1 0 1 0 0 0 2 0 0 2
FullNghs: 604827 ave 620365 max 583763 min
Histogram: 1 0 1 0 0 0 2 0 1 1

Total # of neighbors = 3628960
Ave neighs/atom = 114.28
Ave special neighs/atom = 5.09986
Neighbor list builds = 100
Dangerous builds = 99
velocity all zero linear
WARNING: Use special bonds = 0,1,1 with bond style fene (bond_fene.cpp:189)
Memory usage per processor = 18.891 Mbytes
Step sdpd_kin pTemp 
  450000 1.0248675e+09 1.0031981e+09 
  450100 1.0210775e+09 9.9952851e+08 
  450200 1.027187e+09 1.0061203e+09 
  450300 1.0287021e+09 1.0074531e+09 
  450400 1.020258e+09 9.993747e+08 
  450500 1.022794e+09 1.0023013e+09 
  450600 1.0141746e+09 9.9303482e+08 
  450700 1.0215924e+09 1.0011356e+09 
  450800 1.0200965e+09 9.9994743e+08 
  450900 1.0167552e+09 9.9644546e+08 
  451000 1.018639e+09 9.9862022e+08 
Loop time of 666.242 on 6 procs for 1000 steps with 31755 atoms

Pair  time (%) = 599.365 (89.9621)
Bond  time (%) = 0.775313 (0.116371)
Neigh time (%) = 5.14991 (0.77298)
Comm  time (%) = 25.2053 (3.78321)
Outpt time (%) = 2.1108 (0.316821)
Other time (%) = 33.6355 (5.04854)

Nlocal:    5292.5 ave 5474 max 5133 min
Histogram: 1 0 2 0 0 0 2 0 0 1
Nghost:    7962.83 ave 8007 max 7927 min
Histogram: 1 1 1 0 0 1 0 1 0 1
Neighs:    300293 ave 315720 max 282680 min
Histogram: 1 0 1 0 1 0 1 0 1 1
FullNghs: 600586 ave 632534 max 564318 min
Histogram: 1 0 1 0 1 0 1 0 1 1

Total # of neighbors = 3603518
Ave neighs/atom = 113.479
Ave special neighs/atom = 5.09986
Neighbor list builds = 100
Dangerous builds = 100
velocity all zero linear
WARNING: Use special bonds = 0,1,1 with bond style fene (bond_fene.cpp:189)
Memory usage per processor = 18.891 Mbytes
Step sdpd_kin pTemp 
  451000 1.018639e+09 9.9862022e+08 
  451100 1.0221585e+09 1.0020119e+09 
  451200 1.027378e+09 1.0066175e+09 
  451300 1.0300788e+09 1.0090844e+09 
  451400 1.0235943e+09 1.0030727e+09 
  451500 1.0146399e+09 9.938067e+08 
  451600 1.0235538e+09 1.003042e+09 
  451700 1.0198235e+09 9.9897698e+08 
  451800 1.0246087e+09 1.0042552e+09 
  451900 1.0261061e+09 1.0060118e+09 
  452000 1.0266205e+09 1.006407e+09 
Loop time of 671.325 on 6 procs for 1000 steps with 31755 atoms

Pair  time (%) = 596.434 (88.8444)
Bond  time (%) = 0.77766 (0.11584)
Neigh time (%) = 5.11814 (0.762393)
Comm  time (%) = 34.0813 (5.07672)
Outpt time (%) = 2.09429 (0.311964)
Other time (%) = 32.8192 (4.88873)

Nlocal:    5292.5 ave 5468 max 5191 min
Histogram: 2 0 1 1 0 1 0 0 0 1
Nghost:    7837.17 ave 8110 max 7646 min
Histogram: 1 0 2 0 2 0 0 0 0 1
Neighs:    300387 ave 319524 max 290838 min
Histogram: 2 0 1 2 0 0 0 0 0 1
FullNghs: 600774 ave 639171 max 582103 min
Histogram: 2 0 2 1 0 0 0 0 0 1

Total # of neighbors = 3604642
Ave neighs/atom = 113.514
Ave special neighs/atom = 5.09986
Neighbor list builds = 100
Dangerous builds = 100
velocity all zero linear
WARNING: Use special bonds = 0,1,1 with bond style fene (bond_fene.cpp:189)
Memory usage per processor = 18.891 Mbytes
Step sdpd_kin pTemp 
  452000 1.0266204e+09 1.006407e+09 
  452100 1.0353334e+09 1.0147512e+09 
  452200 1.0185245e+09 9.977346e+08 
  452300 1.0223105e+09 1.0011018e+09 
  452400 1.0162274e+09 9.9456457e+08 
  452500 1.0264031e+09 1.0046543e+09 
  452600 1.0291977e+09 1.0076097e+09 
  452700 1.0248419e+09 1.0033015e+09 
  452800 1.0245908e+09 1.0031456e+09 
  452900 1.0280543e+09 1.0065801e+09 
  453000 1.0177162e+09 9.9628584e+08 
Loop time of 680.714 on 6 procs for 1000 steps with 31755 atoms

Pair  time (%) = 599.406 (88.0556)
Bond  time (%) = 0.778399 (0.11435)
Neigh time (%) = 5.1459 (0.755956)
Comm  time (%) = 39.7085 (5.83336)
Outpt time (%) = 2.09514 (0.307785)
Other time (%) = 33.5795 (4.93298)

Nlocal:    5292.5 ave 5474 max 5133 min
Histogram: 1 0 1 0 2 0 1 0 0 1
Nghost:    7939.17 ave 8152 max 7630 min
Histogram: 1 0 0 1 1 0 0 0 2 1
Neighs:    302178 ave 325044 max 287020 min
Histogram: 1 0 2 1 1 0 0 0 0 1
FullNghs: 604357 ave 649580 max 574605 min
Histogram: 1 0 2 1 0 1 0 0 0 1

Total # of neighbors = 3626140
Ave neighs/atom = 114.191
Ave special neighs/atom = 5.09986
Neighbor list builds = 100
Dangerous builds = 100
velocity all zero linear
WARNING: Use special bonds = 0,1,1 with bond style fene (bond_fene.cpp:189)
Memory usage per processor = 18.891 Mbytes
Step sdpd_kin pTemp 
  453000 1.0177159e+09 9.9628584e+08 
  453100 1.0351691e+09 1.012747e+09 
  453200 1.0260005e+09 1.0037517e+09 
  453300 1.0262397e+09 1.0045033e+09 
  453400 1.0229316e+09 1.0010075e+09 
  453500 1.0249318e+09 1.0032178e+09 
  453600 1.0205734e+09 9.9884752e+08 
  453700 1.0288638e+09 1.0075851e+09 
  453800 1.0355507e+09 1.0138486e+09 
  453900 1.029816e+09 1.0085203e+09 
  454000 1.0237899e+09 1.0020229e+09 
Loop time of 688.579 on 6 procs for 1000 steps with 31755 atoms

Pair  time (%) = 603.054 (87.5795)
Bond  time (%) = 0.77469 (0.112506)
Neigh time (%) = 5.1313 (0.745202)
Comm  time (%) = 44.5084 (6.46381)
Outpt time (%) = 2.08977 (0.303491)
Other time (%) = 33.0207 (4.79549)

Nlocal:    5292.5 ave 5486 max 5099 min
Histogram: 1 1 0 1 0 1 0 0 1 1
Nghost:    7893.5 ave 8234 max 7625 min
Histogram: 1 1 1 0 0 1 0 1 0 1
Neighs:    302120 ave 323420 max 283830 min
Histogram: 1 1 1 0 0 1 0 1 0 1
FullNghs: 604241 ave 646882 max 568253 min
Histogram: 1 1 1 0 0 1 0 1 0 1

Total # of neighbors = 3625446
Ave neighs/atom = 114.169
Ave special neighs/atom = 5.09986
Neighbor list builds = 100
Dangerous builds = 100
velocity all zero linear
WARNING: Use special bonds = 0,1,1 with bond style fene (bond_fene.cpp:189)
Memory usage per processor = 18.891 Mbytes
Step sdpd_kin pTemp 
  454000 1.0237895e+09 1.0020229e+09 
  454100 1.0240623e+09 1.0023137e+09 
  454200 1.0220884e+09 1.0002528e+09 
  454300 1.0258535e+09 1.0039034e+09 
  454400 1.0283406e+09 1.0070879e+09 
  454500 1.0314196e+09 1.0098123e+09 
  454600 1.0182651e+09 9.9636615e+08 
  454700 1.0240541e+09 1.002178e+09 
  454800 1.0214297e+09 9.9953971e+08 
  454900 1.0250953e+09 1.0027815e+09 
  455000 1.0237943e+09 1.001809e+09 
Loop time of 680.544 on 6 procs for 1000 steps with 31755 atoms

Pair  time (%) = 600.278 (88.2056)
Bond  time (%) = 0.775732 (0.113987)
Neigh time (%) = 5.11638 (0.751807)
Comm  time (%) = 39.8291 (5.85254)
Outpt time (%) = 2.08259 (0.306019)
Other time (%) = 32.4623 (4.77004)

Nlocal:    5292.5 ave 5560 max 5102 min
Histogram: 1 1 1 1 0 0 0 1 0 1
Nghost:    7737.33 ave 8068 max 7541 min
Histogram: 2 1 1 0 0 0 1 0 0 1
Neighs:    301150 ave 328271 max 283092 min
Histogram: 1 2 0 1 0 0 0 1 0 1
FullNghs: 602300 ave 656231 max 566371 min
Histogram: 1 2 0 1 0 0 0 1 0 1

Total # of neighbors = 3613802
Ave neighs/atom = 113.803
Ave special neighs/atom = 5.09986
Neighbor list builds = 100
Dangerous builds = 100
velocity all zero linear
WARNING: Use special bonds = 0,1,1 with bond style fene (bond_fene.cpp:189)
Memory usage per processor = 18.891 Mbytes
Step sdpd_kin pTemp 
  455000 1.0237941e+09 1.001809e+09 
  455100 1.0203924e+09 9.9839809e+08 
  455200 1.0239971e+09 1.0018756e+09 
  455300 1.0338393e+09 1.0115513e+09 
  455400 1.0272558e+09 1.0050291e+09 
  455500 1.0305664e+09 1.0083558e+09 
  455600  1.02337e+09 1.0007688e+09 
  455700 1.0252921e+09 1.0025207e+09 
  455800 1.0194633e+09  9.96891e+08 
  455900 1.0353899e+09 1.0125788e+09 
  456000 1.0293666e+09 1.0060669e+09 
Loop time of 685.166 on 6 procs for 1000 steps with 31755 atoms

Pair  time (%) = 600.767 (87.6819)
Bond  time (%) = 0.772095 (0.112687)
Neigh time (%) = 5.1215 (0.747483)
Comm  time (%) = 43.0696 (6.28601)
Outpt time (%) = 2.08542 (0.304367)
Other time (%) = 33.3509 (4.86756)

Nlocal:    5292.5 ave 5479 max 5147 min
Histogram: 1 2 0 0 1 0 0 0 1 1
Nghost:    7710.5 ave 7876 max 7475 min
Histogram: 1 0 0 0 1 1 0 1 1 1
Neighs:    301674 ave 323170 max 285061 min
Histogram: 1 1 1 0 1 0 0 1 0 1
FullNghs: 603349 ave 645734 max 569382 min
Histogram: 1 1 0 1 1 0 0 1 0 1

Total # of neighbors = 3620092
Ave neighs/atom = 114.001
Ave special neighs/atom = 5.09986
Neighbor list builds = 100
Dangerous builds = 100
velocity all zero linear
WARNING: Use special bonds = 0,1,1 with bond style fene (bond_fene.cpp:189)
Memory usage per processor = 18.891 Mbytes
Step sdpd_kin pTemp 
  456000 1.0293666e+09 1.0060669e+09 
  456100 1.0268638e+09 1.0038206e+09 
  456200 1.0195321e+09 9.9680778e+08 
  456300 1.0214929e+09 9.9870525e+08 
  456400 1.0220349e+09 9.9894731e+08 
  456500 1.0320565e+09 1.0093269e+09 
  456600 1.0313372e+09 1.0084416e+09 
  456700 1.0274924e+09 1.0045527e+09 
  456800 1.0276952e+09 1.0047357e+09 
  456900 1.0246304e+09 1.0016516e+09 
  457000 1.035524e+09 1.0123148e+09 
Loop time of 684.798 on 6 procs for 1000 steps with 31755 atoms

Pair  time (%) = 601.301 (87.8071)
Bond  time (%) = 0.767704 (0.112107)
Neigh time (%) = 5.12314 (0.748125)
Comm  time (%) = 42.5194 (6.20905)
Outpt time (%) = 2.10081 (0.306779)
Other time (%) = 32.9856 (4.81684)

Nlocal:    5292.5 ave 5487 max 5044 min
Histogram: 1 0 0 1 0 1 0 2 0 1
Nghost:    7689.33 ave 7829 max 7379 min
Histogram: 1 0 0 0 1 0 0 1 0 3
Neighs:    302284 ave 323052 max 280159 min
Histogram: 1 0 0 2 0 0 1 1 0 1
FullNghs: 604568 ave 644884 max 560003 min
Histogram: 1 0 0 2 0 0 0 2 0 1

Total # of neighbors = 3627406
Ave neighs/atom = 114.231
Ave special neighs/atom = 5.09986
Neighbor list builds = 100
Dangerous builds = 100
velocity all zero linear
WARNING: Use special bonds = 0,1,1 with bond style fene (bond_fene.cpp:189)
Memory usage per processor = 18.891 Mbytes
Step sdpd_kin pTemp 
  457000 1.035524e+09 1.0123148e+09 
  457100 1.0301157e+09 1.0070668e+09 
  457200 1.032263e+09 1.0086278e+09 
  457300 1.0211627e+09 9.9780093e+08 
  457400 1.0267134e+09 1.0032352e+09 
  457500 1.0377017e+09 1.0147369e+09 
  457600 1.0237452e+09 1.000979e+09 
  457700 1.0323538e+09 1.009457e+09 
  457800 1.0244585e+09 1.0016799e+09 
  457900 1.0271502e+09 1.0048073e+09 
  458000 1.0191953e+09 9.9667148e+08 
Loop time of 681.455 on 6 procs for 1000 steps with 31755 atoms

Pair  time (%) = 603.077 (88.4984)
Bond  time (%) = 0.770171 (0.113019)
Neigh time (%) = 5.12289 (0.751757)
Comm  time (%) = 36.0372 (5.28827)
Outpt time (%) = 2.1172 (0.310688)
Other time (%) = 34.3311 (5.03791)

Nlocal:    5292.5 ave 5412 max 4953 min
Histogram: 1 0 0 0 0 0 1 0 1 3
Nghost:    7737.83 ave 7926 max 7567 min
Histogram: 1 0 1 1 0 1 0 1 0 1
Neighs:    302864 ave 316011 max 269799 min
Histogram: 1 0 0 0 0 1 0 0 2 2
FullNghs: 605727 ave 630111 max 540594 min
Histogram: 1 0 0 0 0 0 1 0 1 3

Total # of neighbors = 3634364
Ave neighs/atom = 114.45
Ave special neighs/atom = 5.09986
Neighbor list builds = 100
Dangerous builds = 100
velocity all zero linear
WARNING: Use special bonds = 0,1,1 with bond style fene (bond_fene.cpp:189)
Memory usage per processor = 18.891 Mbytes
Step sdpd_kin pTemp 
  458000 1.0191952e+09 9.9667148e+08 
  458100 1.0316643e+09 1.0088209e+09 
  458200 1.0225891e+09 9.9979487e+08 
  458300 1.0307203e+09 1.0079614e+09 
  458400 1.0274812e+09 1.004284e+09 
  458500 1.0291797e+09 1.0058771e+09 
  458600 1.0240173e+09 1.0009787e+09 
  458700 1.0267897e+09 1.0038645e+09 
  458800 1.0263735e+09 1.0033813e+09 
  458900 1.0267171e+09 1.0036521e+09 
  459000 1.0298195e+09 1.0066896e+09 
Loop time of 669.841 on 6 procs for 1000 steps with 31755 atoms

Pair  time (%) = 601.625 (89.8162)
Bond  time (%) = 0.779473 (0.116367)
Neigh time (%) = 5.14849 (0.768615)
Comm  time (%) = 26.7706 (3.99657)
Outpt time (%) = 2.09986 (0.313487)
Other time (%) = 33.4168 (4.98877)

Nlocal:    5292.5 ave 5378 max 5123 min
Histogram: 1 0 0 0 0 1 1 0 1 2
Nghost:    7767.83 ave 7909 max 7643 min
Histogram: 3 0 0 0 0 0 0 0 1 2
Neighs:    301861 ave 311165 max 284483 min
Histogram: 1 0 0 0 0 1 1 0 2 1
FullNghs: 603722 ave 622816 max 568706 min
Histogram: 1 0 0 0 0 1 1 0 2 1

Total # of neighbors = 3622334
Ave neighs/atom = 114.071
Ave special neighs/atom = 5.09986
Neighbor list builds = 100
Dangerous builds = 100
velocity all zero linear
WARNING: Use special bonds = 0,1,1 with bond style fene (bond_fene.cpp:189)
Memory usage per processor = 18.891 Mbytes
Step sdpd_kin pTemp 
  459000 1.0298193e+09 1.0066896e+09 
  459100 1.0277056e+09 1.0043882e+09 
  459200 1.0215848e+09 9.9783798e+08 
  459300 1.0297144e+09 1.0066157e+09 
  459400 1.0262774e+09 1.0025072e+09 
  459500 1.0235181e+09 9.9996156e+08 
  459600 1.0216186e+09 9.9773711e+08 
  459700 1.0318503e+09 1.0079316e+09 
  459800 1.0225418e+09 9.9869468e+08 
  459900 1.0251889e+09 1.0011314e+09 
  460000 1.0262053e+09 1.0025249e+09 
Loop time of 664.751 on 6 procs for 1000 steps with 31755 atoms

Pair  time (%) = 601.518 (90.4877)
Bond  time (%) = 0.78194 (0.117629)
Neigh time (%) = 5.16699 (0.777282)
Comm  time (%) = 22.26 (3.34862)
Outpt time (%) = 2.12914 (0.320292)
Other time (%) = 32.895 (4.94848)

Nlocal:    5292.5 ave 5427 max 5178 min
Histogram: 1 0 1 0 1 2 0 0 0 1
Nghost:    7677.67 ave 7829 max 7573 min
Histogram: 2 1 0 0 1 0 0 0 1 1
Neighs:    302985 ave 312939 max 293755 min
Histogram: 1 0 0 1 2 0 1 0 0 1
FullNghs: 605969 ave 625700 max 588313 min
Histogram: 1 0 0 2 1 0 1 0 0 1

Total # of neighbors = 3635816
Ave neighs/atom = 114.496
Ave special neighs/atom = 5.09986
Neighbor list builds = 100
Dangerous builds = 99
velocity all zero linear
WARNING: Use special bonds = 0,1,1 with bond style fene (bond_fene.cpp:189)
Memory usage per processor = 18.891 Mbytes
Step sdpd_kin pTemp 
  460000 1.0262051e+09 1.0025249e+09 
  460100 1.0275058e+09 1.0033958e+09 
  460200 1.0318358e+09 1.0073653e+09 
  460300 1.0231431e+09 9.9896822e+08 
  460400 1.0260505e+09 1.0018266e+09 
  460500 1.0290657e+09 1.0052089e+09 
  460600 1.0332436e+09 1.0091403e+09 
  460700 1.0278077e+09 1.0034769e+09 
  460800 1.0222243e+09 9.9808222e+08 
  460900 1.0272383e+09 1.0032507e+09 
  461000 1.0270169e+09 1.0030083e+09 
Loop time of 659.817 on 6 procs for 1000 steps with 31755 atoms

Pair  time (%) = 601.672 (91.1878)
Bond  time (%) = 0.778917 (0.11805)
Neigh time (%) = 5.17547 (0.78438)
Comm  time (%) = 17.1422 (2.59803)
Outpt time (%) = 2.1165 (0.320771)
Other time (%) = 32.931 (4.99094)

Nlocal:    5292.5 ave 5397 max 5200 min
Histogram: 1 1 1 0 0 1 0 0 1 1
Nghost:    7739.5 ave 7945 max 7534 min
Histogram: 1 0 1 1 1 0 0 0 1 1
Neighs:    301779 ave 308837 max 294307 min
Histogram: 1 0 1 1 0 1 0 0 0 2
FullNghs: 603558 ave 618199 max 588259 min
Histogram: 1 1 0 0 2 0 0 0 0 2

Total # of neighbors = 3621346
Ave neighs/atom = 114.04
Ave special neighs/atom = 5.09986
Neighbor list builds = 100
Dangerous builds = 100
velocity all zero linear
WARNING: Use special bonds = 0,1,1 with bond style fene (bond_fene.cpp:189)
Memory usage per processor = 18.891 Mbytes
Step sdpd_kin pTemp 
  461000 1.0270168e+09 1.0030083e+09 
  461100 1.026472e+09 1.0030902e+09 
  461200 1.0264601e+09 1.0032708e+09 
  461300 1.0349238e+09 1.0119646e+09 
  461400 1.0265045e+09 1.0036753e+09 
  461500 1.0245443e+09 1.0013561e+09 
  461600 1.0256393e+09 1.002851e+09 
  461700 1.0269162e+09 1.0044912e+09 
  461800 1.0262698e+09 1.0040002e+09 
  461900 1.022765e+09 1.0006776e+09 
  462000 1.0240905e+09 1.0018293e+09 
Loop time of 665.148 on 6 procs for 1000 steps with 31755 atoms

Pair  time (%) = 600.879 (90.3376)
Bond  time (%) = 0.774392 (0.116424)
Neigh time (%) = 5.15835 (0.775519)
Comm  time (%) = 23.5441 (3.53967)
Outpt time (%) = 2.1102 (0.317252)
Other time (%) = 32.6821 (4.91351)

Nlocal:    5292.5 ave 5391 max 5121 min
Histogram: 1 0 0 0 1 0 1 1 0 2
Nghost:    7769.83 ave 7879 max 7637 min
Histogram: 2 0 0 1 0 0 0 0 0 3
Neighs:    303072 ave 312436 max 288060 min
Histogram: 1 0 0 1 0 0 0 3 0 1
FullNghs: 606143 ave 624943 max 575457 min
Histogram: 1 0 0 1 0 0 0 2 1 1

Total # of neighbors = 3636858
Ave neighs/atom = 114.529
Ave special neighs/atom = 5.09986
Neighbor list builds = 100
Dangerous builds = 100
velocity all zero linear
WARNING: Use special bonds = 0,1,1 with bond style fene (bond_fene.cpp:189)
Memory usage per processor = 18.1281 Mbytes
Step sdpd_kin pTemp 
  462000 1.0240903e+09 1.0018293e+09 
  462100 1.0213031e+09 9.9930304e+08 
  462200 1.0221931e+09 1.0000375e+09 
  462300 1.0271986e+09 1.0050866e+09 
  462400 1.0182187e+09 9.9607916e+08 
  462500 1.0254917e+09 1.0035271e+09 
  462600 1.032093e+09 1.0102532e+09 
  462700 1.0283939e+09 1.006391e+09 
  462800 1.019632e+09 9.9779472e+08 
  462900 1.0267511e+09 1.0050506e+09 
  463000 1.0286687e+09 1.0072953e+09 
Loop time of 665.165 on 6 procs for 1000 steps with 31755 atoms

Pair  time (%) = 600.962 (90.3478)
Bond  time (%) = 0.797402 (0.11988)
Neigh time (%) = 5.14669 (0.773746)
Comm  time (%) = 22.5665 (3.39261)
Outpt time (%) = 2.09643 (0.315175)
Other time (%) = 33.596 (5.05077)

Nlocal:    5292.5 ave 5407 max 5009 min
Histogram: 1 0 0 0 0 0 0 2 1 2
Nghost:    7835.33 ave 7896 max 7754 min
Histogram: 1 1 0 0 0 1 0 1 0 2
Neighs:    301843 ave 313388 max 269133 min
Histogram: 1 0 0 0 0 0 0 1 2 2
FullNghs: 603687 ave 627053 max 538813 min
Histogram: 1 0 0 0 0 0 0 1 2 2

Total # of neighbors = 3622120
Ave neighs/atom = 114.065
Ave special neighs/atom = 5.09986
Neighbor list builds = 100
Dangerous builds = 100
velocity all zero linear
WARNING: Use special bonds = 0,1,1 with bond style fene (bond_fene.cpp:189)
Memory usage per processor = 18.1281 Mbytes
Step sdpd_kin pTemp 
  463000 1.0286684e+09 1.0072953e+09 
  463100 1.0311108e+09 1.0090849e+09 
  463200 1.0265167e+09 1.0046055e+09 
  463300 1.0224206e+09 1.0002981e+09 
  463400 1.0276303e+09 1.0053941e+09 
  463500 1.0247804e+09 1.0026029e+09 
  463600 1.0311809e+09 1.009072e+09 
  463700 1.0201192e+09 9.9801266e+08 
  463800 1.0327297e+09 1.010532e+09 
  463900 1.0252624e+09 1.0028914e+09 
  464000 1.0225411e+09 1.0007743e+09 
Loop time of 667.873 on 6 procs for 1000 steps with 31755 atoms

Pair  time (%) = 599.182 (89.715)
Bond  time (%) = 0.781037 (0.116944)
Neigh time (%) = 5.14525 (0.770394)
Comm  time (%) = 27.4531 (4.11053)
Outpt time (%) = 2.09969 (0.314384)
Other time (%) = 33.2118 (4.97277)

Nlocal:    5292.5 ave 5374 max 5048 min
Histogram: 1 0 0 0 0 0 0 1 1 3
Nghost:    7796.83 ave 7995 max 7574 min
Histogram: 1 0 0 0 2 0 2 0 0 1
Neighs:    301307 ave 312002 max 270542 min
Histogram: 1 0 0 0 0 0 0 2 0 3
FullNghs: 602615 ave 625601 max 538955 min
Histogram: 1 0 0 0 0 0 0 2 0 3

Total # of neighbors = 3615688
Ave neighs/atom = 113.862
Ave special neighs/atom = 5.09986
Neighbor list builds = 100
Dangerous builds = 100
velocity all zero linear
WARNING: Use special bonds = 0,1,1 with bond style fene (bond_fene.cpp:189)
Memory usage per processor = 18.1281 Mbytes
Step sdpd_kin pTemp 
  464000 1.0225409e+09 1.0007743e+09 
  464100 1.0190388e+09 9.9714826e+08 
  464200 1.019827e+09 9.9749977e+08 
  464300 1.0272902e+09 1.0050555e+09 
  464400 1.0272458e+09 1.0049815e+09 
  464500 1.0324823e+09 1.0100794e+09 
  464600 1.0211843e+09  9.99005e+08 
  464700 1.0288008e+09 1.0064799e+09 
  464800 1.0256671e+09 1.0038034e+09 
  464900 1.017416e+09 9.9598343e+08 
  465000 1.0239837e+09 1.0024489e+09 
Loop time of 664.778 on 6 procs for 1000 steps with 31755 atoms

Pair  time (%) = 600.182 (90.283)
Bond  time (%) = 0.781385 (0.117541)
Neigh time (%) = 5.14495 (0.773935)
Comm  time (%) = 24.1786 (3.63709)
Outpt time (%) = 2.11093 (0.31754)
Other time (%) = 32.3803 (4.87085)

Nlocal:    5292.5 ave 5410 max 5094 min
Histogram: 1 0 0 0 0 0 2 2 0 1
Nghost:    7880.17 ave 7997 max 7728 min
Histogram: 2 0 0 0 0 0 1 1 0 2
Neighs:    302249 ave 309184 max 279916 min
Histogram: 1 0 0 0 0 0 0 0 2 3
FullNghs: 604498 ave 619168 max 559225 min
Histogram: 1 0 0 0 0 0 0 0 3 2

Total # of neighbors = 3626986
Ave neighs/atom = 114.218
Ave special neighs/atom = 5.09986
Neighbor list builds = 100
Dangerous builds = 100
velocity all zero linear
WARNING: Use special bonds = 0,1,1 with bond style fene (bond_fene.cpp:189)
Memory usage per processor = 18.1281 Mbytes
Step sdpd_kin pTemp 
  465000 1.0239837e+09 1.0024489e+09 
  465100 1.014868e+09 9.9342389e+08 
  465200 1.0184858e+09 9.9685229e+08 
  465300 1.0184113e+09 9.9756034e+08 
  465400 1.0252462e+09 1.0047613e+09 
  465500 1.0215392e+09 1.0010008e+09 
  465600 1.025084e+09 1.004242e+09 
  465700 1.0293189e+09 1.0085843e+09 
  465800 1.0291254e+09 1.0083786e+09 
  465900 1.0215745e+09 1.0004452e+09 
  466000 1.0255289e+09 1.0051436e+09 
Loop time of 667.476 on 6 procs for 1000 steps with 31755 atoms

Pair  time (%) = 599.503 (89.8164)
Bond  time (%) = 0.785071 (0.117618)
Neigh time (%) = 5.17247 (0.77493)
Comm  time (%) = 26.286 (3.93812)
Outpt time (%) = 2.11817 (0.31734)
Other time (%) = 33.6114 (5.0356)

Nlocal:    5292.5 ave 5356 max 5206 min
Histogram: 1 1 0 0 0 0 1 0 2 1
Nghost:    7844 ave 8059 max 7543 min
Histogram: 1 0 0 0 1 1 0 1 1 1
Neighs:    301823 ave 309885 max 295085 min
Histogram: 1 1 0 1 1 0 0 1 0 1
FullNghs: 603646 ave 618986 max 591644 min
Histogram: 2 0 0 1 1 0 0 1 0 1

Total # of neighbors = 3621878
Ave neighs/atom = 114.057
Ave special neighs/atom = 5.09986
Neighbor list builds = 100
Dangerous builds = 100
velocity all zero linear
WARNING: Use special bonds = 0,1,1 with bond style fene (bond_fene.cpp:189)
Memory usage per processor = 18.891 Mbytes
Step sdpd_kin pTemp 
  466000 1.0255288e+09 1.0051436e+09 
  466100 1.0220419e+09 1.0021375e+09 
  466200 1.0255214e+09 1.0061266e+09 
  466300 1.0259855e+09 1.0064829e+09 
  466400 1.031462e+09 1.0115214e+09 
  466500 1.0291375e+09 1.0096091e+09 
  466600 1.0292784e+09 1.0098572e+09 
  466700 1.0171663e+09 9.9740402e+08 
  466800 1.027694e+09 1.0081676e+09 
  466900 1.0227093e+09 1.0032033e+09 
  467000 1.0214569e+09 1.0018938e+09 
Loop time of 656.82 on 6 procs for 1000 steps with 31755 atoms

Pair  time (%) = 601.599 (91.5927)
Bond  time (%) = 0.78789 (0.119955)
Neigh time (%) = 5.16901 (0.786975)
Comm  time (%) = 13.3218 (2.02823)
Outpt time (%) = 2.11281 (0.321673)
Other time (%) = 33.8291 (5.15044)

Nlocal:    5292.5 ave 5376 max 5204 min
Histogram: 2 0 0 0 1 0 1 0 0 2
Nghost:    7741.83 ave 7838 max 7637 min
Histogram: 1 1 0 0 0 2 0 0 1 1
Neighs:    302735 ave 309270 max 295297 min
Histogram: 2 0 0 0 0 1 0 1 1 1
FullNghs: 605470 ave 618481 max 589835 min
Histogram: 2 0 0 0 0 1 0 1 0 2

Total # of neighbors = 3632820
Ave neighs/atom = 114.402
Ave special neighs/atom = 5.09986
Neighbor list builds = 100
Dangerous builds = 100
velocity all zero linear
WARNING: Use special bonds = 0,1,1 with bond style fene (bond_fene.cpp:189)
Memory usage per processor = 18.891 Mbytes
Step sdpd_kin pTemp 
  467000 1.0214568e+09 1.0018938e+09 
  467100 1.0242347e+09 1.0048879e+09 
  467200 1.0201181e+09 1.0010838e+09 
  467300 1.0232125e+09 1.0039671e+09 
  467400 1.0214043e+09 1.0018362e+09 
  467500 1.0242052e+09 1.0047776e+09 
  467600 1.021141e+09 1.0015383e+09 
  467700 1.0270647e+09 1.0076242e+09 
  467800 1.0327264e+09 1.0134069e+09 
  467900 1.0238079e+09 1.0045489e+09 
  468000 1.0258311e+09 1.0062747e+09 
Loop time of 661.279 on 6 procs for 1000 steps with 31755 atoms

Pair  time (%) = 603.802 (91.3082)
Bond  time (%) = 0.776127 (0.117368)
Neigh time (%) = 5.15521 (0.779582)
Comm  time (%) = 15.8311 (2.39401)
Outpt time (%) = 2.0963 (0.317007)
Other time (%) = 33.6184 (5.08384)

Nlocal:    5292.5 ave 5410 max 5212 min
Histogram: 1 2 0 1 0 0 0 0 1 1
Nghost:    7732 ave 7829 max 7485 min
Histogram: 1 0 0 0 0 1 0 0 1 3
Neighs:    303064 ave 312499 max 295179 min
Histogram: 2 0 1 0 0 1 0 0 1 1
FullNghs: 606128 ave 625455 max 590237 min
Histogram: 2 0 1 0 0 1 0 0 1 1

Total # of neighbors = 3636768
Ave neighs/atom = 114.526
Ave special neighs/atom = 5.09986
Neighbor list builds = 100
Dangerous builds = 100
velocity all zero linear
WARNING: Use special bonds = 0,1,1 with bond style fene (bond_fene.cpp:189)
Memory usage per processor = 18.891 Mbytes
Step sdpd_kin pTemp 
  468000 1.0258311e+09 1.0062747e+09 
  468100 1.0199591e+09 1.0003819e+09 
  468200 1.0221681e+09 1.0026723e+09 
  468300 1.0243934e+09 1.0047915e+09 
  468400 1.0254464e+09 1.0061883e+09 
  468500 1.0270212e+09 1.0070871e+09 
  468600 1.020663e+09 1.0010311e+09 
  468700 1.0263398e+09 1.0066913e+09 
  468800 1.0308224e+09 1.010615e+09 
  468900 1.0182903e+09 9.9794463e+08 
  469000 1.0159381e+09 9.9527263e+08 
Loop time of 666.165 on 6 procs for 1000 steps with 31755 atoms

Pair  time (%) = 602.036 (90.3734)
Bond  time (%) = 0.778988 (0.116936)
Neigh time (%) = 5.14419 (0.772209)
Comm  time (%) = 20.4932 (3.07629)
Outpt time (%) = 2.11083 (0.316863)
Other time (%) = 35.602 (5.34433)

Nlocal:    5292.5 ave 5458 max 5207 min
Histogram: 2 2 0 0 0 0 0 1 0 1
Nghost:    7777.67 ave 7985 max 7592 min
Histogram: 1 0 0 3 0 0 0 0 1 1
Neighs:    302338 ave 317123 max 293070 min
Histogram: 2 1 0 0 1 0 0 1 0 1
FullNghs: 604676 ave 634306 max 587479 min
Histogram: 3 0 0 0 1 0 1 0 0 1

Total # of neighbors = 3628058
Ave neighs/atom = 114.252
Ave special neighs/atom = 5.09986
Neighbor list builds = 100
Dangerous builds = 100
velocity all zero linear
WARNING: Use special bonds = 0,1,1 with bond style fene (bond_fene.cpp:189)
Memory usage per processor = 18.1281 Mbytes
Step sdpd_kin pTemp 
  469000 1.0159381e+09 9.9527263e+08 
  469100 1.0212871e+09 1.0006542e+09 
  469200 1.0303364e+09 1.0093419e+09 
  469300 1.0221864e+09 1.0012124e+09 
  469400 1.0218533e+09 1.0009409e+09 
  469500 1.0268696e+09 1.005989e+09 
  469600 1.0243525e+09 1.0037545e+09 
  469700 1.0208981e+09 1.0002806e+09 
  469800  1.02561e+09 1.0048421e+09 
  469900 1.0167849e+09 9.967279e+08 
  470000 1.0243768e+09 1.004122e+09 
Loop time of 669.109 on 6 procs for 1000 steps with 31755 atoms

Pair  time (%) = 603.631 (90.2141)
Bond  time (%) = 0.774335 (0.115726)
Neigh time (%) = 5.13485 (0.767416)
Comm  time (%) = 24.4985 (3.66137)
Outpt time (%) = 2.10942 (0.315258)
Other time (%) = 32.9611 (4.92611)

Nlocal:    5292.5 ave 5402 max 5173 min
Histogram: 1 0 1 0 0 2 0 1 0 1
Nghost:    7837.33 ave 8033 max 7691 min
Histogram: 1 0 1 2 0 0 1 0 0 1
Neighs:    302480 ave 314309 max 290482 min
Histogram: 1 1 0 1 0 1 0 0 0 2
FullNghs: 604960 ave 628179 max 581432 min
Histogram: 1 1 0 0 1 1 0 0 0 2

Total # of neighbors = 3629762
Ave neighs/atom = 114.305
Ave special neighs/atom = 5.09986
Neighbor list builds = 100
Dangerous builds = 99
velocity all zero linear
WARNING: Use special bonds = 0,1,1 with bond style fene (bond_fene.cpp:189)
Memory usage per processor = 18.1281 Mbytes
Step sdpd_kin pTemp 
  470000 1.0243767e+09 1.004122e+09 
  470100 1.0277493e+09 1.0072142e+09 
  470200 1.0234271e+09 1.0034153e+09 
  470300 1.0223078e+09 1.0014225e+09 
  470400 1.0226232e+09 1.0020171e+09 
  470500 1.0208826e+09  1.00035e+09 
  470600 1.0273288e+09 1.0064643e+09 
  470700 1.0246481e+09 1.0038167e+09 
  470800 1.018248e+09 9.9768094e+08 
  470900 1.0252806e+09 1.005047e+09 
  471000 1.0175286e+09 9.9682075e+08 
Loop time of 677.579 on 6 procs for 1000 steps with 31755 atoms

Pair  time (%) = 602.583 (88.9317)
Bond  time (%) = 0.783155 (0.115581)
Neigh time (%) = 5.14079 (0.7587)
Comm  time (%) = 32.6727 (4.82197)
Outpt time (%) = 2.10276 (0.310334)
Other time (%) = 34.2968 (5.06167)

Nlocal:    5292.5 ave 5461 max 5222 min
Histogram: 2 0 3 0 0 0 0 0 0 1
Nghost:    7858.33 ave 8097 max 7582 min
Histogram: 1 1 0 0 0 0 2 1 0 1
Neighs:    302208 ave 321363 max 295365 min
Histogram: 3 0 2 0 0 0 0 0 0 1
FullNghs: 604416 ave 640505 max 590545 min
Histogram: 3 0 1 1 0 0 0 0 0 1

Total # of neighbors = 3626494
Ave neighs/atom = 114.202
Ave special neighs/atom = 5.09986
Neighbor list builds = 100
Dangerous builds = 100
velocity all zero linear
WARNING: Use special bonds = 0,1,1 with bond style fene (bond_fene.cpp:189)
Memory usage per processor = 18.891 Mbytes
Step sdpd_kin pTemp 
  471000 1.0175285e+09 9.9682075e+08 
  471100 1.0235357e+09 1.0022332e+09 
  471200 1.0277524e+09 1.0066204e+09 
  471300 1.0296394e+09 1.0081468e+09 
  471400 1.0170952e+09 9.9613407e+08 
  471500 1.0217324e+09 1.0004496e+09 
  471600 1.0223725e+09 1.0010186e+09 
  471700 1.030875e+09 1.0093272e+09 
  471800 1.0293377e+09 1.0076803e+09 
  471900 1.0249027e+09 1.0035436e+09 
  472000 1.0178154e+09 9.9622002e+08 
Loop time of 670.751 on 6 procs for 1000 steps with 31755 atoms

Pair  time (%) = 600.372 (89.5074)
Bond  time (%) = 0.778614 (0.116081)
Neigh time (%) = 5.1324 (0.765173)
Comm  time (%) = 30.0743 (4.48368)
Outpt time (%) = 2.09545 (0.312404)
Other time (%) = 32.2985 (4.81528)

Nlocal:    5292.5 ave 5405 max 5130 min
Histogram: 1 0 0 1 0 1 0 0 2 1
Nghost:    7733.67 ave 7866 max 7589 min
Histogram: 1 1 0 0 0 1 1 1 0 1
Neighs:    301384 ave 310179 max 290756 min
Histogram: 2 0 0 1 0 0 0 0 0 3
FullNghs: 602769 ave 618911 max 580032 min
Histogram: 2 0 0 0 1 0 0 0 0 3

Total # of neighbors = 3616614
Ave neighs/atom = 113.891
Ave special neighs/atom = 5.09986
Neighbor list builds = 100
Dangerous builds = 100
velocity all zero linear
WARNING: Use special bonds = 0,1,1 with bond style fene (bond_fene.cpp:189)
Memory usage per processor = 18.1281 Mbytes
Step sdpd_kin pTemp 
  472000 1.0178154e+09 9.9622002e+08 
  472100 1.0243249e+09 1.0023576e+09 
  472200 1.0283478e+09 1.0067144e+09 
  472300 1.0324788e+09 1.0116335e+09 
  472400 1.0247327e+09 1.0032754e+09 
  472500 1.0203406e+09 9.9903481e+08 
  472600 1.0295581e+09 1.0080372e+09 
  472700 1.0238693e+09 1.0023253e+09 
  472800 1.0264323e+09 1.0054533e+09 
  472900 1.0214533e+09 1.0006076e+09 
  473000 1.0248892e+09 1.0039075e+09 
Loop time of 669.271 on 6 procs for 1000 steps with 31755 atoms

Pair  time (%) = 600.386 (89.7074)
Bond  time (%) = 0.778199 (0.116276)
Neigh time (%) = 5.14786 (0.769174)
Comm  time (%) = 26.7191 (3.99227)
Outpt time (%) = 2.09044 (0.312346)
Other time (%) = 34.1497 (5.10252)

Nlocal:    5292.5 ave 5490 max 5164 min
Histogram: 1 2 0 1 0 0 1 0 0 1
Nghost:    7714.33 ave 7924 max 7622 min
Histogram: 2 2 0 1 0 0 0 0 0 1
Neighs:    302492 ave 320217 max 288099 min
Histogram: 1 0 2 1 0 0 0 0 1 1
FullNghs: 604985 ave 640881 max 576002 min
Histogram: 1 0 2 0 1 0 0 1 0 1

Total # of neighbors = 3629908
Ave neighs/atom = 114.31
Ave special neighs/atom = 5.09986
Neighbor list builds = 100
Dangerous builds = 100
velocity all zero linear
WARNING: Use special bonds = 0,1,1 with bond style fene (bond_fene.cpp:189)
Memory usage per processor = 18.891 Mbytes
Step sdpd_kin pTemp 
  473000 1.0248892e+09 1.0039075e+09 
  473100 1.025465e+09 1.0040866e+09 
  473200 1.026263e+09 1.004849e+09 
  473300 1.023458e+09 1.0019206e+09 
  473400 1.0289884e+09 1.0073723e+09 
  473500 1.0249966e+09 1.003936e+09 
  473600 1.0247615e+09 1.0032018e+09 
  473700 1.0204259e+09 9.9891182e+08 
  473800 1.0250375e+09 1.0034831e+09 
  473900 1.0278822e+09 1.0058317e+09 
  474000 1.018048e+09 9.9652343e+08 
Loop time of 678.442 on 6 procs for 1000 steps with 31755 atoms

Pair  time (%) = 601.636 (88.679)
Bond  time (%) = 0.779008 (0.114823)
Neigh time (%) = 5.13899 (0.757469)
Comm  time (%) = 33.5922 (4.95138)
Outpt time (%) = 2.09589 (0.308927)
Other time (%) = 35.2003 (5.1884)

Nlocal:    5292.5 ave 5480 max 5052 min
Histogram: 1 0 0 1 1 0 0 1 1 1
Nghost:    7840 ave 8054 max 7682 min
Histogram: 1 0 2 0 1 1 0 0 0 1
Neighs:    302746 ave 321085 max 282186 min
Histogram: 1 0 0 2 0 0 0 2 0 1
FullNghs: 605493 ave 641277 max 564897 min
Histogram: 1 0 0 2 0 0 0 2 0 1

Total # of neighbors = 3632958
Ave neighs/atom = 114.406
Ave special neighs/atom = 5.09986
Neighbor list builds = 100
Dangerous builds = 100
velocity all zero linear
WARNING: Use special bonds = 0,1,1 with bond style fene (bond_fene.cpp:189)
Memory usage per processor = 18.891 Mbytes
Step sdpd_kin pTemp 
  474000 1.018048e+09 9.9652343e+08 
  474100 1.0275946e+09 1.0056734e+09 
  474200  1.02509e+09 1.0034896e+09 
  474300 1.0298277e+09 1.0077217e+09 
  474400 1.0341324e+09 1.0119393e+09 
  474500 1.0235429e+09 1.0014298e+09 
  474600 1.0189848e+09 9.9727099e+08 
  474700 1.0353503e+09 1.0139105e+09 
  474800 1.028003e+09 1.0069181e+09 
  474900 1.0285231e+09 1.0075226e+09 
  475000 1.0194042e+09 9.9913429e+08 
Loop time of 675.019 on 6 procs for 1000 steps with 31755 atoms

Pair  time (%) = 602.851 (89.3087)
Bond  time (%) = 0.774097 (0.114678)
Neigh time (%) = 5.13289 (0.760407)
Comm  time (%) = 30.7811 (4.56003)
Outpt time (%) = 2.09269 (0.31002)
Other time (%) = 33.3872 (4.94612)

Nlocal:    5292.5 ave 5411 max 5162 min
Histogram: 1 0 1 0 1 1 0 0 1 1
Nghost:    7673.5 ave 7790 max 7511 min
Histogram: 1 0 0 0 2 0 0 2 0 1
Neighs:    302651 ave 318029 max 290027 min
Histogram: 1 1 0 1 1 0 0 1 0 1
FullNghs: 605302 ave 634182 max 579328 min
Histogram: 1 1 0 0 2 0 0 1 0 1

Total # of neighbors = 3631814
Ave neighs/atom = 114.37
Ave special neighs/atom = 5.09986
Neighbor list builds = 100
Dangerous builds = 100
velocity all zero linear
WARNING: Use special bonds = 0,1,1 with bond style fene (bond_fene.cpp:189)
Memory usage per processor = 18.891 Mbytes
Step sdpd_kin pTemp 
  475000 1.0194041e+09 9.9913429e+08 
  475100 1.0189885e+09 9.9827769e+08 
  475200 1.0214453e+09 1.0007692e+09 
  475300 1.0200308e+09 9.9928709e+08 
  475400 1.032935e+09 1.0114721e+09 
  475500 1.0160495e+09 9.9484579e+08 
  475600 1.0211935e+09 9.998788e+08 
  475700 1.0225416e+09 1.0013728e+09 
  475800 1.0261564e+09 1.0046391e+09 
  475900 1.027304e+09 1.0054928e+09 
  476000 1.0264178e+09 1.0046561e+09 
Loop time of 687.949 on 6 procs for 1000 steps with 31755 atoms

Pair  time (%) = 604.34 (87.8467)
Bond  time (%) = 0.773896 (0.112493)
Neigh time (%) = 5.13875 (0.746967)
Comm  time (%) = 41.2339 (5.99374)
Outpt time (%) = 2.08842 (0.303572)
Other time (%) = 34.3732 (4.99648)

Nlocal:    5292.5 ave 5468 max 5205 min
Histogram: 1 1 2 1 0 0 0 0 0 1
Nghost:    7779.17 ave 7916 max 7596 min
Histogram: 1 0 0 0 1 1 1 1 0 1
Neighs:    302310 ave 323009 max 291991 min
Histogram: 1 1 2 1 0 0 0 0 0 1
FullNghs: 604620 ave 646614 max 583371 min
Histogram: 1 1 2 1 0 0 0 0 0 1

Total # of neighbors = 3627718
Ave neighs/atom = 114.241
Ave special neighs/atom = 5.09986
Neighbor list builds = 100
Dangerous builds = 100
velocity all zero linear
WARNING: Use special bonds = 0,1,1 with bond style fene (bond_fene.cpp:189)
Memory usage per processor = 18.891 Mbytes
Step sdpd_kin pTemp 
  476000 1.0264178e+09 1.0046561e+09 
  476100 1.0277311e+09 1.0055591e+09 
  476200 1.0248288e+09 1.0027788e+09 
  476300 1.022762e+09 1.0000403e+09 
  476400 1.0324316e+09 1.010355e+09 
  476500 1.0194921e+09 9.9738286e+08 
  476600 1.0213694e+09 9.9883823e+08 
  476700 1.0335685e+09 1.0113113e+09 
  476800 1.0303907e+09 1.0082823e+09 
  476900 1.0294937e+09 1.0067126e+09 
  477000 1.0219379e+09 9.995531e+08 
Loop time of 666.909 on 6 procs for 1000 steps with 31755 atoms

Pair  time (%) = 601.33 (90.1667)
Bond  time (%) = 0.778844 (0.116784)
Neigh time (%) = 5.12571 (0.768576)
Comm  time (%) = 25.1964 (3.77808)
Outpt time (%) = 2.09538 (0.314193)
Other time (%) = 32.3831 (4.8557)

Nlocal:    5292.5 ave 5385 max 5185 min
Histogram: 2 0 0 0 0 1 0 2 0 1
Nghost:    7832.17 ave 8167 max 7597 min
Histogram: 1 0 2 1 0 1 0 0 0 1
Neighs:    302392 ave 310935 max 291681 min
Histogram: 1 0 1 0 0 1 0 1 1 1
FullNghs: 604785 ave 623006 max 584516 min
Histogram: 1 0 1 0 1 0 0 2 0 1

Total # of neighbors = 3628708
Ave neighs/atom = 114.272
Ave special neighs/atom = 5.09986
Neighbor list builds = 100
Dangerous builds = 100
velocity all zero linear
WARNING: Use special bonds = 0,1,1 with bond style fene (bond_fene.cpp:189)
Memory usage per processor = 18.891 Mbytes
Step sdpd_kin pTemp 
  477000 1.0219379e+09 9.995531e+08 
  477100 1.0270149e+09 1.0044691e+09 
  477200 1.032234e+09 1.0093102e+09 
  477300 1.027605e+09 1.0050403e+09 
  477400 1.0282285e+09 1.0063363e+09 
  477500 1.0303023e+09 1.0085792e+09 
  477600 1.028255e+09 1.0069449e+09 
  477700 1.0268405e+09 1.0052609e+09 
  477800 1.0278865e+09 1.0065182e+09 
  477900 1.0229424e+09 1.0012252e+09 
  478000 1.0204465e+09 9.9877185e+08 
Loop time of 665.503 on 6 procs for 1000 steps with 31755 atoms

Pair  time (%) = 601.503 (90.3833)
Bond  time (%) = 0.772023 (0.116006)
Neigh time (%) = 5.1609 (0.775488)
Comm  time (%) = 22.1398 (3.32678)
Outpt time (%) = 2.10979 (0.317022)
Other time (%) = 33.8172 (5.08145)

Nlocal:    5292.5 ave 5401 max 5194 min
Histogram: 1 1 0 0 1 1 1 0 0 1
Nghost:    7666.83 ave 7876 max 7513 min
Histogram: 1 0 2 0 1 0 1 0 0 1
Neighs:    302128 ave 310180 max 292392 min
Histogram: 2 0 0 0 0 0 1 1 1 1
FullNghs: 604256 ave 621721 max 582953 min
Histogram: 1 1 0 0 0 1 0 1 1 1

Total # of neighbors = 3625536
Ave neighs/atom = 114.172
Ave special neighs/atom = 5.09986
Neighbor list builds = 100
Dangerous builds = 100
velocity all zero linear
WARNING: Use special bonds = 0,1,1 with bond style fene (bond_fene.cpp:189)
Memory usage per processor = 18.891 Mbytes
Step sdpd_kin pTemp 
  478000 1.0204464e+09 9.9877185e+08 
  478100 1.0252385e+09 1.0033239e+09 
  478200 1.0261523e+09 1.0036581e+09 
  478300 1.0229158e+09 1.0009811e+09 
  478400 1.0165909e+09 9.9428164e+08 
  478500 1.0249248e+09 1.0024609e+09 
  478600 1.028939e+09 1.0062119e+09 
  478700 1.0296521e+09 1.0069227e+09 
  478800 1.021883e+09 9.9872064e+08 
  478900 1.0238026e+09 1.000958e+09 
  479000 1.0222366e+09 9.9993614e+08 
Loop time of 678.739 on 6 procs for 1000 steps with 31755 atoms

Pair  time (%) = 605.116 (89.153)
Bond  time (%) = 0.770838 (0.113569)
Neigh time (%) = 5.13793 (0.756982)
Comm  time (%) = 31.7251 (4.67413)
Outpt time (%) = 2.09847 (0.309171)
Other time (%) = 33.8903 (4.99313)

Nlocal:    5292.5 ave 5461 max 5045 min
Histogram: 1 0 0 0 1 1 0 1 1 1
Nghost:    7715.17 ave 7875 max 7519 min
Histogram: 1 0 0 2 0 0 0 1 1 1
Neighs:    303342 ave 317876 max 281672 min
Histogram: 1 0 0 1 0 1 0 1 0 2
FullNghs: 606683 ave 635777 max 559828 min
Histogram: 1 0 0 1 0 0 1 1 0 2

Total # of neighbors = 3640098
Ave neighs/atom = 114.631
Ave special neighs/atom = 5.09986
Neighbor list builds = 100
Dangerous builds = 100
velocity all zero linear
WARNING: Use special bonds = 0,1,1 with bond style fene (bond_fene.cpp:189)
Memory usage per processor = 18.891 Mbytes
Step sdpd_kin pTemp 
  479000 1.0222366e+09 9.9993614e+08 
  479100 1.0275492e+09 1.0050793e+09 
  479200 1.0238689e+09 1.0013294e+09 
  479300 1.0169357e+09 9.9387744e+08 
  479400 1.0222844e+09 9.9929279e+08 
  479500 1.0258012e+09 1.0023945e+09 
  479600 1.0250986e+09 1.0018924e+09 
  479700 1.0268992e+09 1.0039166e+09 
  479800 1.0216573e+09 9.9902934e+08 
  479900 1.0241933e+09 1.0010014e+09 
  480000 1.0326829e+09 1.0100834e+09 
Loop time of 682.491 on 6 procs for 1000 steps with 31755 atoms

Pair  time (%) = 605.529 (88.7233)
Bond  time (%) = 0.766788 (0.112351)
Neigh time (%) = 5.12882 (0.751485)
Comm  time (%) = 36.3135 (5.32072)
Outpt time (%) = 2.11766 (0.310284)
Other time (%) = 32.6358 (4.78186)

Nlocal:    5292.5 ave 5493 max 5188 min
Histogram: 2 1 0 0 2 0 0 0 0 1
Nghost:    7775.67 ave 7959 max 7622 min
Histogram: 1 1 1 0 0 1 0 1 0 1
Neighs:    302819 ave 322594 max 290928 min
Histogram: 2 0 1 1 0 1 0 0 0 1
FullNghs: 605639 ave 645139 max 582685 min
Histogram: 2 0 1 1 0 1 0 0 0 1

Total # of neighbors = 3633832
Ave neighs/atom = 114.433
Ave special neighs/atom = 5.09986
Neighbor list builds = 100
Dangerous builds = 99
velocity all zero linear
WARNING: Use special bonds = 0,1,1 with bond style fene (bond_fene.cpp:189)
Memory usage per processor = 18.891 Mbytes
Step sdpd_kin pTemp 
  480000 1.0326829e+09 1.0100834e+09 
  480100 1.0295257e+09 1.0070922e+09 
  480200 1.0218145e+09 9.9940874e+08 
  480300 1.0285188e+09 1.0060052e+09 
  480400 1.0280513e+09 1.0058085e+09 
  480500 1.0324415e+09 1.0100782e+09 
  480600 1.0271807e+09 1.0048568e+09 
  480700 1.0299252e+09 1.0070409e+09 
  480800 1.027041e+09 1.0044292e+09 
  480900 1.0190426e+09 9.960401e+08 
  481000 1.0217003e+09 9.9842445e+08 
Loop time of 677.704 on 6 procs for 1000 steps with 31755 atoms

Pair  time (%) = 603.573 (89.0615)
Bond  time (%) = 0.776968 (0.114647)
Neigh time (%) = 5.15032 (0.759965)
Comm  time (%) = 31.5541 (4.65603)
Outpt time (%) = 2.10528 (0.310649)
Other time (%) = 34.5439 (5.0972)

Nlocal:    5292.5 ave 5387 max 5175 min
Histogram: 1 0 0 0 1 2 0 0 1 1
Nghost:    7785.83 ave 7914 max 7692 min
Histogram: 1 0 1 1 2 0 0 0 0 1
Neighs:    302583 ave 312890 max 293102 min
Histogram: 1 1 0 0 1 1 0 1 0 1
FullNghs: 605167 ave 626765 max 584448 min
Histogram: 1 1 0 0 1 1 0 1 0 1

Total # of neighbors = 3631000
Ave neighs/atom = 114.344
Ave special neighs/atom = 5.09986
Neighbor list builds = 100
Dangerous builds = 100
velocity all zero linear
WARNING: Use special bonds = 0,1,1 with bond style fene (bond_fene.cpp:189)
Memory usage per processor = 18.891 Mbytes
Step sdpd_kin pTemp 
  481000 1.0217003e+09 9.9842445e+08 
  481100 1.0204095e+09 9.9669077e+08 
  481200 1.0269127e+09 1.0036654e+09 
  481300 1.0243554e+09 1.0008728e+09 
  481400 1.0267738e+09 1.0034673e+09 
  481500 1.0270881e+09 1.0035009e+09 
  481600 1.0257851e+09 1.0027485e+09 
  481700 1.0370171e+09 1.0136699e+09 
  481800 1.0183229e+09 9.9561174e+08 
  481900 1.024402e+09 1.0013462e+09 
  482000 1.0264781e+09 1.0032233e+09 
Loop time of 675.261 on 6 procs for 1000 steps with 31755 atoms

Pair  time (%) = 601.971 (89.1465)
Bond  time (%) = 0.768419 (0.113796)
Neigh time (%) = 5.13526 (0.760486)
Comm  time (%) = 31.9376 (4.72966)
Outpt time (%) = 2.11492 (0.3132)
Other time (%) = 33.3332 (4.93635)

Nlocal:    5292.5 ave 5454 max 5056 min
Histogram: 1 0 0 1 1 0 0 1 0 2
Nghost:    7753 ave 7916 max 7493 min
Histogram: 1 0 0 0 0 1 1 2 0 1
Neighs:    301340 ave 317215 max 280065 min
Histogram: 1 0 0 1 1 0 1 0 1 1
FullNghs: 602679 ave 633819 max 558741 min
Histogram: 1 0 0 1 0 1 0 1 0 2

Total # of neighbors = 3616074
Ave neighs/atom = 113.874
Ave special neighs/atom = 5.09986
Neighbor list builds = 100
Dangerous builds = 100
velocity all zero linear
WARNING: Use special bonds = 0,1,1 with bond style fene (bond_fene.cpp:189)
Memory usage per processor = 18.1281 Mbytes
Step sdpd_kin pTemp 
  482000 1.026478e+09 1.0032233e+09 
  482100 1.0299533e+09 1.0070898e+09 
  482200 1.0280875e+09 1.0049106e+09 
  482300 1.027918e+09 1.0047453e+09 
  482400 1.0333758e+09 1.0102713e+09 
  482500 1.031063e+09 1.0081346e+09 
  482600 1.0178609e+09 9.9500528e+08 
  482700 1.0271725e+09 1.0047739e+09 
  482800 1.0320703e+09 1.0092993e+09 
  482900 1.0128849e+09 9.8993386e+08 
  483000 1.0291682e+09 1.0067942e+09 
Loop time of 683.341 on 6 procs for 1000 steps with 31755 atoms

Pair  time (%) = 601.38 (88.0059)
Bond  time (%) = 0.768035 (0.112394)
Neigh time (%) = 5.11201 (0.748091)
Comm  time (%) = 41.0821 (6.01195)
Outpt time (%) = 2.1065 (0.308264)
Other time (%) = 32.8919 (4.8134)

Nlocal:    5292.5 ave 5544 max 5058 min
Histogram: 1 0 1 0 1 1 1 0 0 1
Nghost:    7926 ave 8082 max 7743 min
Histogram: 1 0 1 0 0 1 1 1 0 1
Neighs:    301226 ave 325475 max 281371 min
Histogram: 1 0 2 0 1 0 1 0 0 1
FullNghs: 602451 ave 649850 max 562535 min
Histogram: 1 0 2 0 1 0 1 0 0 1

Total # of neighbors = 3614708
Ave neighs/atom = 113.831
Ave special neighs/atom = 5.09986
Neighbor list builds = 100
Dangerous builds = 100
velocity all zero linear
WARNING: Use special bonds = 0,1,1 with bond style fene (bond_fene.cpp:189)
Memory usage per processor = 18.1281 Mbytes
Step sdpd_kin pTemp 
  483000 1.0291681e+09 1.0067942e+09 
  483100 1.0216041e+09 9.9871591e+08 
  483200 1.0273252e+09 1.0047648e+09 
  483300 1.026603e+09 1.0041041e+09 
  483400 1.0222138e+09 9.9992362e+08 
  483500 1.0265863e+09 1.0042849e+09 
  483600 1.0295278e+09 1.0075676e+09 
  483700 1.024306e+09 1.0019324e+09 
  483800 1.0328309e+09 1.0107612e+09 
  483900 1.0266617e+09 1.0040696e+09 
  484000 1.0284954e+09 1.0058567e+09 
Loop time of 694.603 on 6 procs for 1000 steps with 31755 atoms

Pair  time (%) = 601.266 (86.5625)
Bond  time (%) = 0.768255 (0.110603)
Neigh time (%) = 5.11497 (0.736388)
Comm  time (%) = 51.7037 (7.44363)
Outpt time (%) = 2.11334 (0.304251)
Other time (%) = 33.6373 (4.84267)

Nlocal:    5292.5 ave 5479 max 5151 min
Histogram: 1 1 1 0 1 0 0 1 0 1
Nghost:    7783.83 ave 8031 max 7618 min
Histogram: 1 0 2 1 0 0 1 0 0 1
Neighs:    300396 ave 324466 max 285753 min
Histogram: 2 1 1 0 0 0 0 1 0 1
FullNghs: 600791 ave 647585 max 571278 min
Histogram: 2 0 2 0 0 0 0 1 0 1

Total # of neighbors = 3604748
Ave neighs/atom = 113.517
Ave special neighs/atom = 5.09986
Neighbor list builds = 100
Dangerous builds = 100
velocity all zero linear
WARNING: Use special bonds = 0,1,1 with bond style fene (bond_fene.cpp:189)
Memory usage per processor = 18.891 Mbytes
Step sdpd_kin pTemp 
  484000 1.0284954e+09 1.0058567e+09 
  484100 1.0241358e+09 1.0017263e+09 
  484200 1.0182446e+09 9.9618082e+08 
  484300 1.0224848e+09 1.0009264e+09 
  484400 1.0252002e+09 1.0032811e+09 
  484500 1.0259687e+09 1.0041565e+09 
  484600 1.0258603e+09 1.0040764e+09 
  484700 1.0326367e+09 1.0112996e+09 
  484800 1.0252325e+09 1.0037245e+09 
  484900 1.013605e+09 9.9220932e+08 
  485000 1.0229666e+09 1.0008939e+09 
Loop time of 679.07 on 6 procs for 1000 steps with 31755 atoms

Pair  time (%) = 599.91 (88.3429)
Bond  time (%) = 0.77603 (0.114278)
Neigh time (%) = 5.14341 (0.75742)
Comm  time (%) = 36.3781 (5.35706)
Outpt time (%) = 2.11473 (0.311416)
Other time (%) = 34.7476 (5.11695)

Nlocal:    5292.5 ave 5372 max 5178 min
Histogram: 1 0 0 0 1 2 0 0 0 2
Nghost:    7827.83 ave 8062 max 7686 min
Histogram: 2 0 0 2 0 1 0 0 0 1
Neighs:    300616 ave 313243 max 288579 min
Histogram: 1 0 1 1 0 1 0 1 0 1
FullNghs: 601231 ave 626081 max 577251 min
Histogram: 1 0 1 1 0 1 0 1 0 1

Total # of neighbors = 3607388
Ave neighs/atom = 113.601
Ave special neighs/atom = 5.09986
Neighbor list builds = 100
Dangerous builds = 100
velocity all zero linear
WARNING: Use special bonds = 0,1,1 with bond style fene (bond_fene.cpp:189)
Memory usage per processor = 18.891 Mbytes
Step sdpd_kin pTemp 
  485000 1.0229665e+09 1.0008939e+09 
  485100 1.0304649e+09 1.0086202e+09 
  485200 1.027902e+09 1.0059212e+09 
  485300 1.027374e+09 1.005571e+09 
  485400 1.0223048e+09 1.000183e+09 
  485500 1.030301e+09 1.0084776e+09 
  485600 1.0247304e+09 1.0028266e+09 
  485700 1.0242925e+09 1.0025045e+09 
  485800 1.0203391e+09 9.9891455e+08 
  485900 1.0258697e+09 1.0049722e+09 
  486000 1.035691e+09 1.0151373e+09 
Loop time of 671.287 on 6 procs for 1000 steps with 31755 atoms

Pair  time (%) = 600.075 (89.3918)
Bond  time (%) = 0.777461 (0.115817)
Neigh time (%) = 5.13511 (0.764966)
Comm  time (%) = 30.474 (4.53964)
Outpt time (%) = 2.09195 (0.311633)
Other time (%) = 32.7329 (4.87614)

Nlocal:    5292.5 ave 5379 max 5251 min
Histogram: 2 1 1 0 1 0 0 0 0 1
Nghost:    7758 ave 8029 max 7506 min
Histogram: 1 1 0 0 0 2 1 0 0 1
Neighs:    301834 ave 314579 max 296094 min
Histogram: 2 1 1 1 0 0 0 0 0 1
FullNghs: 603667 ave 628852 max 590943 min
Histogram: 2 0 1 2 0 0 0 0 0 1

Total # of neighbors = 3622004
Ave neighs/atom = 114.061
Ave special neighs/atom = 5.09986
Neighbor list builds = 100
Dangerous builds = 100
velocity all zero linear
WARNING: Use special bonds = 0,1,1 with bond style fene (bond_fene.cpp:189)
Memory usage per processor = 18.891 Mbytes
Step sdpd_kin pTemp 
  486000 1.035691e+09 1.0151373e+09 
  486100 1.0301184e+09 1.0089765e+09 
  486200 1.0220439e+09 1.0009059e+09 
  486300 1.0270673e+09 1.005707e+09 
  486400 1.0246836e+09 1.004013e+09 
  486500 1.0208877e+09 1.0005062e+09 
  486600 1.0198156e+09 9.9978759e+08 
  486700 1.0232053e+09 1.0030026e+09 
  486800 1.0252368e+09 1.0046244e+09 
  486900 1.0239121e+09 1.0032812e+09 
  487000 1.0288643e+09 1.0083575e+09 
Loop time of 678.128 on 6 procs for 1000 steps with 31755 atoms

Pair  time (%) = 601.286 (88.6684)
Bond  time (%) = 0.781481 (0.115241)
Neigh time (%) = 5.14004 (0.757975)
Comm  time (%) = 34.7294 (5.12136)
Outpt time (%) = 2.10547 (0.310482)
Other time (%) = 34.0861 (5.0265)

Nlocal:    5292.5 ave 5424 max 5172 min
Histogram: 1 1 0 0 0 2 1 0 0 1
Nghost:    7731.33 ave 7977 max 7401 min
Histogram: 1 0 0 0 1 0 2 1 0 1
Neighs:    302041 ave 315723 max 289723 min
Histogram: 1 1 0 0 1 1 1 0 0 1
FullNghs: 604083 ave 630557 max 580157 min
Histogram: 1 1 0 0 1 1 1 0 0 1

Total # of neighbors = 3624496
Ave neighs/atom = 114.139
Ave special neighs/atom = 5.09986
Neighbor list builds = 100
Dangerous builds = 100
velocity all zero linear
WARNING: Use special bonds = 0,1,1 with bond style fene (bond_fene.cpp:189)
Memory usage per processor = 18.891 Mbytes
Step sdpd_kin pTemp 
  487000 1.0288643e+09 1.0083575e+09 
  487100 1.0245116e+09 1.0040285e+09 
  487200 1.0256167e+09 1.0052267e+09 
  487300 1.022901e+09 1.0031955e+09 
  487400 1.0192581e+09 9.9943932e+08 
  487500 1.0226169e+09 1.0030453e+09 
  487600  1.02074e+09 1.001125e+09 
  487700 1.0191142e+09 1.0001909e+09 
  487800 1.0147064e+09 9.9579317e+08 
  487900 1.0221921e+09 1.0030067e+09 
  488000 1.0213959e+09 1.0023549e+09 
Loop time of 684.463 on 6 procs for 1000 steps with 31755 atoms

Pair  time (%) = 602.403 (88.011)
Bond  time (%) = 0.761368 (0.111236)
Neigh time (%) = 5.12816 (0.749224)
Comm  time (%) = 40.7951 (5.96016)
Outpt time (%) = 2.09744 (0.306436)
Other time (%) = 33.2783 (4.86195)

Nlocal:    5292.5 ave 5484 max 5057 min
Histogram: 1 0 1 0 1 0 1 0 0 2
Nghost:    7837.33 ave 8184 max 7597 min
Histogram: 2 0 0 1 1 0 0 1 0 1
Neighs:    302688 ave 320002 max 278450 min
Histogram: 1 1 0 0 0 1 0 0 1 2
FullNghs: 605376 ave 639968 max 556874 min
Histogram: 1 1 0 0 0 1 0 0 1 2

Total # of neighbors = 3632254
Ave neighs/atom = 114.384
Ave special neighs/atom = 5.09986
Neighbor list builds = 100
Dangerous builds = 100
velocity all zero linear
WARNING: Use special bonds = 0,1,1 with bond style fene (bond_fene.cpp:189)
Memory usage per processor = 18.891 Mbytes
Step sdpd_kin pTemp 
  488000 1.0213959e+09 1.0023549e+09 
  488100 1.0240202e+09 1.0046457e+09 
  488200 1.0329581e+09 1.0137672e+09 
  488300 1.0261403e+09 1.0066332e+09 
  488400 1.0213436e+09 1.0019736e+09 
  488500 1.0214166e+09 1.0016825e+09 
  488600 1.0170313e+09 9.9726146e+08 
  488700 1.0137619e+09 9.9360567e+08 
  488800 1.0268983e+09 1.0068266e+09 
  488900 1.0214777e+09 1.0010449e+09 
  489000 1.0321832e+09 1.0117991e+09 
Loop time of 685.894 on 6 procs for 1000 steps with 31755 atoms

Pair  time (%) = 602.838 (87.8909)
Bond  time (%) = 0.766874 (0.111806)
Neigh time (%) = 5.11414 (0.745617)
Comm  time (%) = 41.3834 (6.03349)
Outpt time (%) = 2.10627 (0.307084)
Other time (%) = 33.685 (4.91111)

Nlocal:    5292.5 ave 5468 max 5092 min
Histogram: 1 1 0 0 0 0 2 1 0 1
Nghost:    7770.83 ave 7855 max 7641 min
Histogram: 1 0 0 0 1 1 0 1 1 1
Neighs:    302468 ave 323028 max 279523 min
Histogram: 1 1 0 0 0 0 2 1 0 1
FullNghs: 604935 ave 646420 max 560093 min
Histogram: 1 1 0 0 0 0 2 1 0 1

Total # of neighbors = 3629612
Ave neighs/atom = 114.3
Ave special neighs/atom = 5.09986
Neighbor list builds = 100
Dangerous builds = 100
velocity all zero linear
WARNING: Use special bonds = 0,1,1 with bond style fene (bond_fene.cpp:189)
Memory usage per processor = 18.891 Mbytes
Step sdpd_kin pTemp 
  489000 1.0321832e+09 1.0117991e+09 
  489100 1.0225746e+09 1.0019292e+09 
  489200 1.0280833e+09 1.0076253e+09 
  489300 1.0198015e+09 9.9915636e+08 
  489400 1.0197795e+09 9.9888381e+08 
  489500 1.0256478e+09 1.0049896e+09 
  489600 1.0245268e+09 1.004201e+09 
  489700 1.0313782e+09 1.0103107e+09 
  489800 1.0218669e+09 1.001133e+09 
  489900 1.023323e+09 1.002821e+09 
  490000 1.0227376e+09 1.0022785e+09 
Loop time of 686.234 on 6 procs for 1000 steps with 31755 atoms

Pair  time (%) = 602.828 (87.8458)
Bond  time (%) = 0.769676 (0.112159)
Neigh time (%) = 5.1167 (0.74562)
Comm  time (%) = 41.5172 (6.05001)
Outpt time (%) = 2.11834 (0.30869)
Other time (%) = 33.8845 (4.93774)

Nlocal:    5292.5 ave 5495 max 5224 min
Histogram: 3 1 0 1 0 0 0 0 0 1
Nghost:    7877.17 ave 8022 max 7702 min
Histogram: 1 0 0 0 1 2 0 1 0 1
Neighs:    303061 ave 321974 max 293346 min
Histogram: 2 1 1 0 0 0 1 0 0 1
FullNghs: 606122 ave 642170 max 585473 min
Histogram: 1 2 1 0 0 0 1 0 0 1

Total # of neighbors = 3636730
Ave neighs/atom = 114.525
Ave special neighs/atom = 5.09986
Neighbor list builds = 100
Dangerous builds = 99
velocity all zero linear
WARNING: Use special bonds = 0,1,1 with bond style fene (bond_fene.cpp:189)
Memory usage per processor = 18.891 Mbytes
Step sdpd_kin pTemp 
  490000 1.0227375e+09 1.0022785e+09 
  490100 1.0214193e+09 1.0012183e+09 
  490200 1.0200361e+09 9.9939122e+08 
  490300 1.0171793e+09 9.9610391e+08 
  490400 1.0235953e+09 1.0025257e+09 
  490500 1.0198686e+09 9.9857231e+08 
  490600 1.0272113e+09 1.0059175e+09 
  490700 1.0292875e+09 1.0076847e+09 
  490800 1.0249363e+09 1.0032748e+09 
  490900 1.0290551e+09 1.0078697e+09 
  491000 1.0263865e+09 1.0052836e+09 
Loop time of 695.739 on 6 procs for 1000 steps with 31755 atoms

Pair  time (%) = 602.795 (86.641)
Bond  time (%) = 0.785925 (0.112963)
Neigh time (%) = 5.12524 (0.736662)
Comm  time (%) = 50.1991 (7.21523)
Outpt time (%) = 2.09695 (0.3014)
Other time (%) = 34.7364 (4.99274)

Nlocal:    5292.5 ave 5504 max 5174 min
Histogram: 1 1 0 3 0 0 0 0 0 1
Nghost:    7769.5 ave 7986 max 7532 min
Histogram: 1 0 1 0 0 2 0 1 0 1
Neighs:    302177 ave 322708 max 288885 min
Histogram: 1 1 0 2 0 1 0 0 0 1
FullNghs: 604354 ave 644978 max 580421 min
Histogram: 1 1 1 1 1 0 0 0 0 1

Total # of neighbors = 3626124
Ave neighs/atom = 114.191
Ave special neighs/atom = 5.09986
Neighbor list builds = 100
Dangerous builds = 100
velocity all zero linear
WARNING: Use special bonds = 0,1,1 with bond style fene (bond_fene.cpp:189)
Memory usage per processor = 18.1281 Mbytes
Step sdpd_kin pTemp 
  491000 1.0263865e+09 1.0052836e+09 
  491100 1.0325209e+09 1.0115896e+09 
  491200 1.0299617e+09 1.0089237e+09 
  491300 1.0213272e+09 1.0006079e+09 
  491400 1.0248385e+09 1.0038814e+09 
  491500 1.0193917e+09 9.9872115e+08 
  491600 1.0204667e+09 9.9975209e+08 
  491700 1.0267403e+09 1.0063869e+09 
  491800 1.0266559e+09 1.0063375e+09 
  491900 1.0246148e+09 1.0044276e+09 
  492000 1.0374662e+09 1.0168029e+09 
Loop time of 685.546 on 6 procs for 1000 steps with 31755 atoms

Pair  time (%) = 602.469 (87.8817)
Bond  time (%) = 0.772017 (0.112613)
Neigh time (%) = 5.13372 (0.748851)
Comm  time (%) = 40.8001 (5.95147)
Outpt time (%) = 2.10902 (0.307641)
Other time (%) = 34.262 (4.99777)

Nlocal:    5292.5 ave 5469 max 5126 min
Histogram: 1 1 0 0 1 1 0 1 0 1
Nghost:    7843.83 ave 8181 max 7617 min
Histogram: 2 0 0 2 0 0 0 1 0 1
Neighs:    302818 ave 319588 max 286934 min
Histogram: 1 1 0 0 1 1 1 0 0 1
FullNghs: 605635 ave 641014 max 574076 min
Histogram: 1 1 0 0 1 1 1 0 0 1

Total # of neighbors = 3633810
Ave neighs/atom = 114.433
Ave special neighs/atom = 5.09986
Neighbor list builds = 100
Dangerous builds = 100
velocity all zero linear
WARNING: Use special bonds = 0,1,1 with bond style fene (bond_fene.cpp:189)
Memory usage per processor = 18.1281 Mbytes
Step sdpd_kin pTemp 
  492000 1.0374662e+09 1.0168029e+09 
  492100 1.0235967e+09 1.0026394e+09 
  492200 1.0150666e+09 9.9413345e+08 
  492300 1.0250467e+09 1.0041043e+09 
  492400 1.0220294e+09 1.0009784e+09 
  492500 1.0257759e+09 1.0047156e+09 
  492600 1.0216751e+09 1.0011685e+09 
  492700 1.0296039e+09 1.0094081e+09 
  492800 1.0215974e+09 1.0010741e+09 
  492900 1.0245426e+09 1.0046393e+09 
  493000 1.0231821e+09 1.0038929e+09 
Loop time of 681.348 on 6 procs for 1000 steps with 31755 atoms

Pair  time (%) = 606.011 (88.9429)
Bond  time (%) = 0.778458 (0.114253)
Neigh time (%) = 5.15695 (0.756874)
Comm  time (%) = 34.1401 (5.01067)
Outpt time (%) = 2.11173 (0.309934)
Other time (%) = 33.1504 (4.86542)

Nlocal:    5292.5 ave 5448 max 5197 min
Histogram: 2 0 1 0 1 1 0 0 0 1
Nghost:    7850.5 ave 8196 max 7653 min
Histogram: 1 0 3 0 0 1 0 0 0 1
Neighs:    303483 ave 318093 max 292268 min
Histogram: 1 1 1 0 0 1 1 0 0 1
FullNghs: 606966 ave 636539 max 584611 min
Histogram: 1 1 0 1 0 1 1 0 0 1

Total # of neighbors = 3641796
Ave neighs/atom = 114.684
Ave special neighs/atom = 5.09986
Neighbor list builds = 100
Dangerous builds = 100
velocity all zero linear
WARNING: Use special bonds = 0,1,1 with bond style fene (bond_fene.cpp:189)
Memory usage per processor = 18.891 Mbytes
Step sdpd_kin pTemp 
  493000 1.0231821e+09 1.0038929e+09 
  493100 1.0253594e+09 1.0058646e+09 
  493200 1.0250004e+09 1.0059256e+09 
  493300 1.0218467e+09 1.0024186e+09 
  493400 1.019428e+09 9.9990131e+08 
  493500 1.0277951e+09 1.0084586e+09 
  493600 1.0245014e+09 1.0052768e+09 
  493700 1.0216106e+09 1.0025545e+09 
  493800 1.0187606e+09 9.9970208e+08 
  493900 1.0281644e+09 1.0094286e+09 
  494000 1.0192213e+09 1.0002512e+09 
Loop time of 676.39 on 6 procs for 1000 steps with 31755 atoms

Pair  time (%) = 603.605 (89.2391)
Bond  time (%) = 0.774475 (0.114501)
Neigh time (%) = 5.1519 (0.761676)
Comm  time (%) = 31.2936 (4.62656)
Outpt time (%) = 2.11481 (0.312661)
Other time (%) = 33.4509 (4.9455)

Nlocal:    5292.5 ave 5392 max 5181 min
Histogram: 2 0 0 0 0 1 0 1 1 1
Nghost:    7809 ave 7908 max 7609 min
Histogram: 1 0 0 1 0 0 0 1 1 2
Neighs:    302195 ave 312905 max 292157 min
Histogram: 2 0 0 0 1 0 1 0 1 1
FullNghs: 604391 ave 623731 max 583676 min
Histogram: 2 0 0 0 0 1 1 0 1 1

Total # of neighbors = 3626344
Ave neighs/atom = 114.198
Ave special neighs/atom = 5.09986
Neighbor list builds = 100
Dangerous builds = 100
velocity all zero linear
WARNING: Use special bonds = 0,1,1 with bond style fene (bond_fene.cpp:189)
Memory usage per processor = 18.891 Mbytes
Step sdpd_kin pTemp 
  494000 1.0192212e+09 1.0002512e+09 
  494100 1.0203585e+09 1.0010029e+09 
  494200 1.0199678e+09 1.0006005e+09 
  494300 1.0199204e+09 1.0012223e+09 
  494400 1.0201669e+09 1.0015153e+09 
  494500 1.0155951e+09 9.9702203e+08 
  494600 1.0162478e+09 9.9737475e+08 
  494700 1.0202172e+09 1.0007404e+09 
  494800 1.0296623e+09 1.0100482e+09 
  494900 1.0199153e+09 1.000133e+09 
  495000 1.0253818e+09 1.0050545e+09 
Loop time of 662.962 on 6 procs for 1000 steps with 31755 atoms

Pair  time (%) = 601.551 (90.7368)
Bond  time (%) = 0.780009 (0.117655)
Neigh time (%) = 5.15203 (0.777122)
Comm  time (%) = 20.1896 (3.04537)
Outpt time (%) = 2.09535 (0.316059)
Other time (%) = 33.1946 (5.00701)

Nlocal:    5292.5 ave 5376 max 5236 min
Histogram: 2 1 0 0 0 1 1 0 0 1
Nghost:    7715.67 ave 7902 max 7555 min
Histogram: 1 0 1 2 0 0 0 0 1 1
Neighs:    302837 ave 309474 max 298070 min
Histogram: 2 1 0 0 1 0 0 0 1 1
FullNghs: 605675 ave 618201 max 597610 min
Histogram: 3 0 0 0 1 0 0 1 0 1

Total # of neighbors = 3634048
Ave neighs/atom = 114.44
Ave special neighs/atom = 5.09986
Neighbor list builds = 100
Dangerous builds = 100
velocity all zero linear
WARNING: Use special bonds = 0,1,1 with bond style fene (bond_fene.cpp:189)
Memory usage per processor = 18.891 Mbytes
Step sdpd_kin pTemp 
  495000 1.0253818e+09 1.0050545e+09 
  495100 1.0176755e+09 9.9746279e+08 
  495200 1.0265059e+09 1.0060971e+09 
  495300 1.028738e+09 1.0090532e+09 
  495400 1.0242959e+09 1.0041503e+09 
  495500 1.0205488e+09 1.0006756e+09 
  495600 1.0240277e+09 1.0040609e+09 
  495700 1.0273254e+09 1.0073159e+09 
  495800 1.0258864e+09 1.0058196e+09 
  495900 1.0239206e+09 1.0037725e+09 
  496000 1.029597e+09 1.0092846e+09 
Loop time of 667.579 on 6 procs for 1000 steps with 31755 atoms

Pair  time (%) = 600.672 (89.9777)
Bond  time (%) = 0.779819 (0.116813)
Neigh time (%) = 5.13254 (0.76883)
Comm  time (%) = 25.8341 (3.86982)
Outpt time (%) = 2.09791 (0.314257)
Other time (%) = 33.0627 (4.95262)

Nlocal:    5292.5 ave 5413 max 5240 min
Histogram: 2 1 1 1 0 0 0 0 0 1
Nghost:    7790.17 ave 7979 max 7711 min
Histogram: 1 3 0 1 0 0 0 0 0 1
Neighs:    301924 ave 309554 max 295715 min
Histogram: 2 0 0 0 1 1 1 0 0 1
FullNghs: 603848 ave 620375 max 590500 min
Histogram: 1 1 0 1 0 1 1 0 0 1

Total # of neighbors = 3623088
Ave neighs/atom = 114.095
Ave special neighs/atom = 5.09986
Neighbor list builds = 100
Dangerous builds = 100
velocity all zero linear
WARNING: Use special bonds = 0,1,1 with bond style fene (bond_fene.cpp:189)
Memory usage per processor = 18.891 Mbytes
Step sdpd_kin pTemp 
  496000 1.029597e+09 1.0092846e+09 
  496100 1.0202337e+09 9.998269e+08 
  496200 1.0243044e+09 1.0039606e+09 
  496300 1.0286949e+09 1.0084836e+09 
  496400 1.0215476e+09 1.0012851e+09 
  496500 1.0219428e+09 1.0014197e+09 
  496600 1.0185731e+09 9.9819547e+08 
  496700 1.0173324e+09 9.9680338e+08 
  496800 1.0305806e+09 1.0100985e+09 
  496900 1.0370977e+09 1.0164234e+09 
  497000 1.0235042e+09 1.0021863e+09 
Loop time of 655.451 on 6 procs for 1000 steps with 31755 atoms

Pair  time (%) = 599.966 (91.5349)
Bond  time (%) = 0.797117 (0.121614)
Neigh time (%) = 5.15357 (0.786264)
Comm  time (%) = 14.6443 (2.23423)
Outpt time (%) = 2.10631 (0.321354)
Other time (%) = 32.7834 (5.00165)

Nlocal:    5292.5 ave 5374 max 5148 min
Histogram: 1 0 1 0 0 0 0 1 1 2
Nghost:    7838.83 ave 7972 max 7745 min
Histogram: 3 0 0 0 0 1 0 0 1 1
Neighs:    302063 ave 309905 max 290614 min
Histogram: 1 0 0 0 1 0 1 2 0 1
FullNghs: 604127 ave 619970 max 580971 min
Histogram: 1 0 0 0 1 0 1 1 1 1

Total # of neighbors = 3624760
Ave neighs/atom = 114.148
Ave special neighs/atom = 5.09986
Neighbor list builds = 100
Dangerous builds = 100
velocity all zero linear
WARNING: Use special bonds = 0,1,1 with bond style fene (bond_fene.cpp:189)
Memory usage per processor = 18.891 Mbytes
Step sdpd_kin pTemp 
  497000 1.0235042e+09 1.0021863e+09 
  497100 1.0278802e+09 1.0066867e+09 
  497200 1.0336874e+09 1.0122265e+09 
  497300  1.03256e+09 1.0109063e+09 
  497400 1.0247406e+09 1.0029779e+09 
  497500 1.0192425e+09 9.9771559e+08 
  497600 1.0241265e+09 1.0026133e+09 
  497700 1.0251577e+09 1.0036396e+09 
  497800 1.0251004e+09 1.003595e+09 
  497900 1.022857e+09 1.0014345e+09 
  498000 1.0218335e+09 1.0006619e+09 
Loop time of 662.621 on 6 procs for 1000 steps with 31755 atoms

Pair  time (%) = 601.503 (90.7763)
Bond  time (%) = 0.781306 (0.117912)
Neigh time (%) = 5.14416 (0.776335)
Comm  time (%) = 19.9534 (3.01129)
Outpt time (%) = 2.09382 (0.31599)
Other time (%) = 33.1453 (5.00215)

Nlocal:    5292.5 ave 5399 max 5122 min
Histogram: 1 1 0 0 0 0 0 2 0 2
Nghost:    7747 ave 7921 max 7591 min
Histogram: 1 1 0 0 2 0 0 1 0 1
Neighs:    302013 ave 315863 max 285505 min
Histogram: 1 0 1 0 0 2 0 0 1 1
FullNghs: 604025 ave 630974 max 572742 min
Histogram: 1 0 1 0 0 2 0 0 1 1

Total # of neighbors = 3624152
Ave neighs/atom = 114.129
Ave special neighs/atom = 5.09986
Neighbor list builds = 100
Dangerous builds = 100
velocity all zero linear
WARNING: Use special bonds = 0,1,1 with bond style fene (bond_fene.cpp:189)
Memory usage per processor = 18.891 Mbytes
Step sdpd_kin pTemp 
  498000 1.0218334e+09 1.0006619e+09 
  498100 1.0284606e+09 1.0072253e+09 
  498200 1.0214735e+09 1.0003118e+09 
  498300 1.0270388e+09 1.0058137e+09 
  498400 1.0262588e+09 1.0046144e+09 
  498500 1.0259601e+09 1.003849e+09 
  498600 1.0153044e+09 9.9346211e+08 
  498700 1.0250606e+09 1.0033847e+09 
  498800 1.0253506e+09 1.0035205e+09 
  498900 1.0262131e+09 1.0046616e+09 
  499000 1.0286103e+09 1.0069891e+09 
Loop time of 668.314 on 6 procs for 1000 steps with 31755 atoms

Pair  time (%) = 601.196 (89.9572)
Bond  time (%) = 0.774856 (0.115942)
Neigh time (%) = 5.15257 (0.770981)
Comm  time (%) = 25.1076 (3.75686)
Outpt time (%) = 2.10911 (0.315587)
Other time (%) = 33.9735 (5.08347)

Nlocal:    5292.5 ave 5399 max 5226 min
Histogram: 1 0 2 1 1 0 0 0 0 1
Nghost:    7878 ave 8017 max 7717 min
Histogram: 2 0 0 0 0 1 0 1 0 2
Neighs:    302276 ave 316244 max 295697 min
Histogram: 2 1 1 0 1 0 0 0 0 1
FullNghs: 604552 ave 632151 max 590523 min
Histogram: 2 1 1 0 0 1 0 0 0 1

Total # of neighbors = 3627310
Ave neighs/atom = 114.228
Ave special neighs/atom = 5.09986
Neighbor list builds = 100
Dangerous builds = 100
velocity all zero linear
WARNING: Use special bonds = 0,1,1 with bond style fene (bond_fene.cpp:189)
Memory usage per processor = 18.891 Mbytes
Step sdpd_kin pTemp 
  499000 1.0286102e+09 1.0069891e+09 
  499100 1.0219564e+09 1.0004748e+09 
  499200 1.0276993e+09 1.0060682e+09 
  499300  1.02788e+09 1.0061923e+09 
  499400 1.0190109e+09 9.9727672e+08 
  499500 1.0247112e+09 1.0031407e+09 
  499600 1.0244796e+09 1.0025007e+09 
  499700 1.0262825e+09 1.0048113e+09 
  499800 1.0332335e+09 1.0111589e+09 
  499900 1.0250307e+09 1.003496e+09 
  500000 1.0269717e+09  1.00602e+09 
Loop time of 674.263 on 6 procs for 1000 steps with 31755 atoms

Pair  time (%) = 601.973 (89.2786)
Bond  time (%) = 0.776891 (0.115221)
Neigh time (%) = 5.16106 (0.765438)
Comm  time (%) = 30.5184 (4.52619)
Outpt time (%) = 2.11384 (0.313505)
Other time (%) = 33.7199 (5.001)

Nlocal:    5292.5 ave 5397 max 5203 min
Histogram: 2 0 0 1 0 1 0 0 1 1
Nghost:    7824.33 ave 8111 max 7671 min
Histogram: 1 1 2 0 1 0 0 0 0 1
Neighs:    302314 ave 311622 max 288564 min
Histogram: 1 0 0 0 2 0 0 1 0 2
FullNghs: 604629 ave 624571 max 577730 min
Histogram: 1 0 0 2 0 0 0 1 0 2

Total # of neighbors = 3627774
Ave neighs/atom = 114.243
Ave special neighs/atom = 5.09986
Neighbor list builds = 100
Dangerous builds = 99
velocity all zero linear
WARNING: Use special bonds = 0,1,1 with bond style fene (bond_fene.cpp:189)
Memory usage per processor = 18.891 Mbytes
Step sdpd_kin pTemp 
  500000 1.0269716e+09  1.00602e+09 
  500100 1.0213355e+09 1.0006103e+09 
  500200 1.0285802e+09 1.0074222e+09 
  500300 1.0303281e+09 1.0090727e+09 
  500400 1.0212413e+09 9.9929989e+08 
  500500 1.0337463e+09 1.012272e+09 
  500600 1.0240246e+09 1.0021036e+09 
  500700 1.0239338e+09 1.0023222e+09 
  500800 1.0254332e+09 1.0037185e+09 
  500900 1.0182102e+09 9.9625774e+08 
  501000 1.0259873e+09 1.0043067e+09 
Loop time of 665.816 on 6 procs for 1000 steps with 31755 atoms

Pair  time (%) = 599.621 (90.0581)
Bond  time (%) = 0.7761 (0.116564)
Neigh time (%) = 5.15148 (0.773709)
Comm  time (%) = 25.2934 (3.79886)
Outpt time (%) = 2.09455 (0.314583)
Other time (%) = 32.8791 (4.93816)

Nlocal:    5292.5 ave 5420 max 5190 min
Histogram: 1 1 0 0 2 1 0 0 0 1
Nghost:    7698.83 ave 7877 max 7576 min
Histogram: 1 1 1 1 0 0 1 0 0 1
Neighs:    301810 ave 315816 max 288997 min
Histogram: 2 0 0 0 0 1 2 0 0 1
FullNghs: 603620 ave 632814 max 579440 min
Histogram: 2 0 0 0 0 1 2 0 0 1

Total # of neighbors = 3621720
Ave neighs/atom = 114.052
Ave special neighs/atom = 5.09986
Neighbor list builds = 100
Dangerous builds = 100
velocity all zero linear
WARNING: Use special bonds = 0,1,1 with bond style fene (bond_fene.cpp:189)
Memory usage per processor = 18.891 Mbytes
Step sdpd_kin pTemp 
  501000 1.0259872e+09 1.0043067e+09 
  501100 1.0137659e+09 9.9239315e+08 
  501200 1.0221769e+09 1.0018208e+09 
  501300 1.0248179e+09 1.0040864e+09 
  501400 1.0247778e+09 1.0042534e+09 
  501500 1.020242e+09 1.0001041e+09 
  501600 1.0218411e+09 1.0016668e+09 
  501700 1.0175238e+09 9.9719318e+08 
  501800 1.020135e+09 9.998364e+08 
  501900 1.0256195e+09 1.0052217e+09 
  502000 1.0141023e+09 9.9355079e+08 
Loop time of 676.959 on 6 procs for 1000 steps with 31755 atoms

Pair  time (%) = 598.891 (88.4679)
Bond  time (%) = 0.779943 (0.115213)
Neigh time (%) = 5.12804 (0.757511)
Comm  time (%) = 37.8504 (5.59125)
Outpt time (%) = 2.09531 (0.309518)
Other time (%) = 32.2136 (4.75857)

Nlocal:    5292.5 ave 5437 max 5115 min
Histogram: 1 1 0 0 0 1 1 0 0 2
Nghost:    7843.5 ave 7993 max 7640 min
Histogram: 1 0 1 0 1 0 0 1 0 2
Neighs:    301489 ave 319622 max 279722 min
Histogram: 1 0 1 0 0 1 1 0 0 2
FullNghs: 602978 ave 639015 max 561569 min
Histogram: 1 0 1 0 0 2 0 0 1 1

Total # of neighbors = 3617870
Ave neighs/atom = 113.931
Ave special neighs/atom = 5.09986
Neighbor list builds = 100
Dangerous builds = 100
velocity all zero linear
WARNING: Use special bonds = 0,1,1 with bond style fene (bond_fene.cpp:189)
Memory usage per processor = 18.891 Mbytes
Step sdpd_kin pTemp 
  502000 1.0141014e+09 9.9355079e+08 
  502100 1.0215525e+09 1.0006536e+09 
  502200 1.0197255e+09 9.9867342e+08 
  502300 1.0242216e+09 1.0026753e+09 
  502400 1.0251892e+09 1.0035622e+09 
  502500 1.0152165e+09 9.9344146e+08 
  502600 1.0229413e+09 1.0012116e+09 
  502700 1.0196288e+09 9.9784727e+08 
  502800 1.0306009e+09 1.009074e+09 
  502900 1.0222669e+09 1.0008159e+09 
  503000 1.0228329e+09 1.0009132e+09 
Loop time of 679.394 on 6 procs for 1000 steps with 31755 atoms

Pair  time (%) = 601.704 (88.5648)
Bond  time (%) = 0.776344 (0.11427)
Neigh time (%) = 5.12115 (0.753782)
Comm  time (%) = 36.8541 (5.42455)
Outpt time (%) = 2.08546 (0.306959)
Other time (%) = 32.8529 (4.83562)

Nlocal:    5292.5 ave 5447 max 5117 min
Histogram: 1 0 0 1 1 1 0 0 0 2
Nghost:    7890.17 ave 8020 max 7746 min
Histogram: 1 0 0 1 1 0 1 1 0 1
Neighs:    301956 ave 317768 max 287334 min
Histogram: 1 0 2 0 1 0 0 0 0 2
FullNghs: 603911 ave 637213 max 575131 min
Histogram: 1 0 2 0 1 0 0 0 1 1

Total # of neighbors = 3623468
Ave neighs/atom = 114.107
Ave special neighs/atom = 5.09986
Neighbor list builds = 100
Dangerous builds = 100
velocity all zero linear
WARNING: Use special bonds = 0,1,1 with bond style fene (bond_fene.cpp:189)
Memory usage per processor = 18.891 Mbytes
Step sdpd_kin pTemp 
  503000 1.022832e+09 1.0009132e+09 
  503100 1.0378066e+09 1.0156695e+09 
  503200 1.0166181e+09 9.9495168e+08 
  503300 1.0203453e+09  9.98625e+08 
  503400 1.0266442e+09 1.0052439e+09 
  503500 1.0222797e+09 1.0010388e+09 
  503600 1.0319376e+09 1.0104965e+09 
  503700 1.0262608e+09 1.0043951e+09 
  503800 1.030855e+09 1.0087383e+09 
  503900 1.0304875e+09 1.0081707e+09 
  504000 1.0310894e+09 1.0089014e+09 
Loop time of 683.777 on 6 procs for 1000 steps with 31755 atoms

Pair  time (%) = 601.233 (87.9283)
Bond  time (%) = 0.774337 (0.113244)
Neigh time (%) = 5.11723 (0.748378)
Comm  time (%) = 39.9776 (5.84659)
Outpt time (%) = 2.08858 (0.305447)
Other time (%) = 34.5857 (5.05804)

Nlocal:    5292.5 ave 5458 max 5135 min
Histogram: 1 0 1 1 0 1 0 1 0 1
Nghost:    7780.33 ave 8034 max 7589 min
Histogram: 1 0 1 1 1 1 0 0 0 1
Neighs:    301962 ave 320676 max 287523 min
Histogram: 1 0 2 1 0 0 0 1 0 1
FullNghs: 603924 ave 638990 max 576399 min
Histogram: 1 1 0 2 0 0 0 0 1 1

Total # of neighbors = 3623544
Ave neighs/atom = 114.109
Ave special neighs/atom = 5.09986
Neighbor list builds = 100
Dangerous builds = 100
velocity all zero linear
WARNING: Use special bonds = 0,1,1 with bond style fene (bond_fene.cpp:189)
Memory usage per processor = 18.891 Mbytes
Step sdpd_kin pTemp 
  504000 1.0310888e+09 1.0089014e+09 
  504100 1.0248142e+09 1.0025654e+09 
  504200 1.0268005e+09 1.0046475e+09 
  504300 1.0294449e+09 1.0071942e+09 
  504400 1.0296363e+09 1.0075419e+09 
  504500 1.0318772e+09 1.0095484e+09 
  504600 1.0182764e+09 9.9616361e+08 
  504700 1.0221579e+09 1.0005928e+09 
  504800 1.0280364e+09 1.0062558e+09 
  504900 1.0173061e+09 9.959716e+08 
  505000 1.0235586e+09 1.0020655e+09 
Loop time of 671.686 on 6 procs for 1000 steps with 31755 atoms

Pair  time (%) = 600.393 (89.3859)
Bond  time (%) = 0.785887 (0.117002)
Neigh time (%) = 5.13353 (0.764276)
Comm  time (%) = 28.4417 (4.23438)
Outpt time (%) = 2.09377 (0.311718)
Other time (%) = 34.8383 (5.1867)

Nlocal:    5292.5 ave 5418 max 5182 min
Histogram: 1 1 1 0 0 1 0 0 0 2
Nghost:    7738.83 ave 7955 max 7481 min
Histogram: 1 0 0 1 1 1 0 0 1 1
Neighs:    301652 ave 313663 max 293931 min
Histogram: 3 0 0 1 0 0 0 0 0 2
FullNghs: 603305 ave 627706 max 587376 min
Histogram: 3 0 0 1 0 0 0 0 0 2

Total # of neighbors = 3619828
Ave neighs/atom = 113.992
Ave special neighs/atom = 5.09986
Neighbor list builds = 100
Dangerous builds = 100
velocity all zero linear
WARNING: Use special bonds = 0,1,1 with bond style fene (bond_fene.cpp:189)
Memory usage per processor = 18.891 Mbytes
Step sdpd_kin pTemp 
  505000 1.0235582e+09 1.0020655e+09 
  505100 1.0227878e+09 1.0009371e+09 
  505200 1.0207992e+09 9.9928898e+08 
  505300 1.0221906e+09 1.000897e+09 
  505400 1.0276583e+09 1.0067364e+09 
  505500 1.0255325e+09 1.0043119e+09 
  505600 1.0273662e+09 1.0055434e+09 
  505700 1.0297971e+09 1.0085855e+09 
  505800 1.0374445e+09 1.0163354e+09 
  505900 1.034583e+09 1.0130364e+09 
  506000 1.0226943e+09 1.0012754e+09 
Loop time of 665.596 on 6 procs for 1000 steps with 31755 atoms

Pair  time (%) = 599.173 (90.0206)
Bond  time (%) = 0.77684 (0.116713)
Neigh time (%) = 5.12149 (0.769459)
Comm  time (%) = 25.1805 (3.78315)
Outpt time (%) = 2.08547 (0.313323)
Other time (%) = 33.2585 (4.9968)

Nlocal:    5292.5 ave 5378 max 5164 min
Histogram: 1 0 0 0 0 3 0 0 0 2
Nghost:    7718.67 ave 7795 max 7624 min
Histogram: 1 1 0 0 1 0 0 1 0 2
Neighs:    302047 ave 311480 max 293990 min
Histogram: 2 0 0 0 2 0 0 0 1 1
FullNghs: 604093 ave 622786 max 587822 min
Histogram: 2 0 0 0 2 0 0 0 1 1

Total # of neighbors = 3624560
Ave neighs/atom = 114.141
Ave special neighs/atom = 5.09986
Neighbor list builds = 100
Dangerous builds = 100
velocity all zero linear
WARNING: Use special bonds = 0,1,1 with bond style fene (bond_fene.cpp:189)
Memory usage per processor = 18.891 Mbytes
Step sdpd_kin pTemp 
  506000 1.0226943e+09 1.0012754e+09 
  506100 1.0153321e+09 9.9417106e+08 
  506200 1.0248172e+09  1.00351e+09 
  506300 1.0283537e+09 1.0072149e+09 
  506400 1.0226006e+09 1.0014559e+09 
  506500 1.0239053e+09 1.0024572e+09 
  506600 1.025715e+09 1.0037613e+09 
  506700 1.0245077e+09 1.002675e+09 
  506800 1.0204945e+09 9.9849791e+08 
  506900 1.0164452e+09 9.9436339e+08 
  507000 1.0295719e+09 1.0067659e+09 
Loop time of 667.354 on 6 procs for 1000 steps with 31755 atoms

Pair  time (%) = 600.521 (89.9853)
Bond  time (%) = 0.784251 (0.117517)
Neigh time (%) = 5.15205 (0.772012)
Comm  time (%) = 24.8474 (3.72326)
Outpt time (%) = 2.0818 (0.311949)
Other time (%) = 33.968 (5.08995)

Nlocal:    5292.5 ave 5448 max 5180 min
Histogram: 1 0 1 1 1 1 0 0 0 1
Nghost:    7724.33 ave 7921 max 7492 min
Histogram: 1 1 0 0 0 1 0 1 1 1
Neighs:    301434 ave 320674 max 288706 min
Histogram: 1 0 1 2 1 0 0 0 0 1
FullNghs: 602869 ave 640469 max 578103 min
Histogram: 1 0 1 2 1 0 0 0 0 1

Total # of neighbors = 3617212
Ave neighs/atom = 113.91
Ave special neighs/atom = 5.09986
Neighbor list builds = 100
Dangerous builds = 100
velocity all zero linear
WARNING: Use special bonds = 0,1,1 with bond style fene (bond_fene.cpp:189)
Memory usage per processor = 18.891 Mbytes
Step sdpd_kin pTemp 
  507000 1.0295719e+09 1.0067659e+09 
  507100 1.0250642e+09 1.0023535e+09 
  507200 1.0197711e+09 9.9734461e+08 
  507300 1.0213006e+09 9.9831577e+08 
  507400 1.0300628e+09 1.0075149e+09 
  507500  1.02825e+09 1.0053905e+09 
  507600 1.0276953e+09 1.0051134e+09 
  507700 1.0257054e+09 1.0036327e+09 
  507800 1.0180679e+09 9.953292e+08 
  507900 1.0150147e+09 9.9219357e+08 
  508000 1.0235691e+09 1.0008996e+09 
Loop time of 679.3 on 6 procs for 1000 steps with 31755 atoms

Pair  time (%) = 599.122 (88.1969)
Bond  time (%) = 0.784766 (0.115526)
Neigh time (%) = 5.14554 (0.757477)
Comm  time (%) = 39.5035 (5.81532)
Outpt time (%) = 2.08015 (0.30622)
Other time (%) = 32.6646 (4.80857)

Nlocal:    5292.5 ave 5374 max 5151 min
Histogram: 1 0 0 0 1 1 0 1 0 2
Nghost:    7858.17 ave 8077 max 7654 min
Histogram: 1 0 1 0 1 1 1 0 0 1
Neighs:    301477 ave 312807 max 287579 min
Histogram: 1 0 0 2 0 0 0 1 1 1
FullNghs: 602955 ave 625075 max 576619 min
Histogram: 1 0 0 1 1 0 0 1 1 1

Total # of neighbors = 3617728
Ave neighs/atom = 113.926
Ave special neighs/atom = 5.09986
Neighbor list builds = 100
Dangerous builds = 100
velocity all zero linear
WARNING: Use special bonds = 0,1,1 with bond style fene (bond_fene.cpp:189)
Memory usage per processor = 18.1281 Mbytes
Step sdpd_kin pTemp 
  508000 1.0235691e+09 1.0008996e+09 
  508100 1.0187138e+09 9.9666931e+08 
  508200 1.0286067e+09 1.0058981e+09 
  508300 1.0293356e+09 1.0074172e+09 
  508400 1.0184205e+09 9.9590044e+08 
  508500 1.0335892e+09 1.0109312e+09 
  508600 1.0234216e+09 1.001376e+09 
  508700 1.0258815e+09 1.0036051e+09 
  508800 1.0291112e+09 1.0070678e+09 
  508900 1.0220188e+09 1.0001965e+09 
  509000 1.0242179e+09 1.0020126e+09 
Loop time of 672.276 on 6 procs for 1000 steps with 31755 atoms

Pair  time (%) = 599.663 (89.1988)
Bond  time (%) = 0.775764 (0.115394)
Neigh time (%) = 5.13757 (0.764205)
Comm  time (%) = 30.7683 (4.57674)
Outpt time (%) = 2.09113 (0.311053)
Other time (%) = 33.841 (5.03379)

Nlocal:    5292.5 ave 5403 max 5093 min
Histogram: 1 0 0 1 0 0 0 1 1 2
Nghost:    7870 ave 7981 max 7690 min
Histogram: 1 0 0 0 2 0 0 0 1 2
Neighs:    301382 ave 314456 max 281929 min
Histogram: 1 1 0 0 0 0 0 2 0 2
FullNghs: 602763 ave 627433 max 566141 min
Histogram: 1 1 0 0 0 0 1 1 0 2

Total # of neighbors = 3616580
Ave neighs/atom = 113.89
Ave special neighs/atom = 5.09986
Neighbor list builds = 100
Dangerous builds = 100
velocity all zero linear
WARNING: Use special bonds = 0,1,1 with bond style fene (bond_fene.cpp:189)
Memory usage per processor = 18.1281 Mbytes
Step sdpd_kin pTemp 
  509000 1.0242174e+09 1.0020126e+09 
  509100 1.0338609e+09 1.0116652e+09 
  509200 1.0239352e+09 1.0016837e+09 
  509300 1.0180662e+09 9.9559644e+08 
  509400 1.0283637e+09 1.0058698e+09 
  509500 1.0392708e+09 1.0168738e+09 
  509600 1.0152888e+09 9.919691e+08 
  509700 1.0305084e+09 1.0069053e+09 
  509800 1.0160491e+09 9.9189881e+08 
  509900 1.035588e+09 1.0116452e+09 
  510000 1.0332451e+09 1.0088182e+09 
Loop time of 676.727 on 6 procs for 1000 steps with 31755 atoms

Pair  time (%) = 600.78 (88.7772)
Bond  time (%) = 0.775773 (0.114636)
Neigh time (%) = 5.1396 (0.759479)
Comm  time (%) = 34.0692 (5.03441)
Outpt time (%) = 2.10759 (0.311438)
Other time (%) = 33.8555 (5.00282)

Nlocal:    5292.5 ave 5420 max 5154 min
Histogram: 1 0 1 0 0 2 0 1 0 1
Nghost:    7912.5 ave 8049 max 7758 min
Histogram: 1 0 1 0 0 2 0 1 0 1
Neighs:    302218 ave 316003 max 287867 min
Histogram: 1 0 1 0 0 2 0 1 0 1
FullNghs: 604436 ave 633499 max 576947 min
Histogram: 1 0 1 0 0 2 1 0 0 1

Total # of neighbors = 3626616
Ave neighs/atom = 114.206
Ave special neighs/atom = 5.09986
Neighbor list builds = 100
Dangerous builds = 99
velocity all zero linear
WARNING: Use special bonds = 0,1,1 with bond style fene (bond_fene.cpp:189)
Memory usage per processor = 18.891 Mbytes
Step sdpd_kin pTemp 
  510000 1.0332444e+09 1.0088182e+09 
  510100 1.0247129e+09 9.9994885e+08 
  510200 1.0183725e+09 9.936761e+08 
  510300 1.0259714e+09 1.0016371e+09 
  510400 1.030492e+09 1.0063217e+09 
  510500 1.0294783e+09 1.0055799e+09 
  510600 1.0303956e+09 1.0064434e+09 
  510700 1.0391854e+09 1.0148658e+09 
  510800 1.0299671e+09 1.0055328e+09 
  510900 1.0285675e+09 1.0043232e+09 
  511000 1.0329902e+09 1.0084751e+09 
Loop time of 668.153 on 6 procs for 1000 steps with 31755 atoms

Pair  time (%) = 601.114 (89.9665)
Bond  time (%) = 0.779365 (0.116645)
Neigh time (%) = 5.16452 (0.772955)
Comm  time (%) = 25.2521 (3.77939)
Outpt time (%) = 2.09187 (0.313082)
Other time (%) = 33.7514 (5.05145)

Nlocal:    5292.5 ave 5389 max 5216 min
Histogram: 2 1 0 0 0 0 1 0 1 1
Nghost:    7892.17 ave 8150 max 7526 min
Histogram: 1 0 0 0 1 0 2 0 1 1
Neighs:    302356 ave 318185 max 291199 min
Histogram: 1 1 0 1 2 0 0 0 0 1
FullNghs: 604712 ave 634802 max 585529 min
Histogram: 1 1 1 0 1 1 0 0 0 1

Total # of neighbors = 3628274
Ave neighs/atom = 114.258
Ave special neighs/atom = 5.09986
Neighbor list builds = 100
Dangerous builds = 100
velocity all zero linear
WARNING: Use special bonds = 0,1,1 with bond style fene (bond_fene.cpp:189)
Memory usage per processor = 18.891 Mbytes
Step sdpd_kin pTemp 
  511000 1.0329898e+09 1.0084751e+09 
  511100 1.0330331e+09 1.0084506e+09 
  511200 1.0206083e+09 9.9570381e+08 
  511300 1.0217774e+09 9.9697387e+08 
  511400 1.0262277e+09 1.0013209e+09 
  511500 1.0280216e+09 1.0038246e+09 
  511600 1.0321159e+09 1.0075659e+09 
  511700 1.0248527e+09 1.0004804e+09 
  511800 1.0299641e+09 1.0052977e+09 
  511900 1.0276735e+09 1.003193e+09 
  512000 1.0260368e+09 1.0017334e+09 
Loop time of 673.085 on 6 procs for 1000 steps with 31755 atoms

Pair  time (%) = 599.841 (89.1181)
Bond  time (%) = 0.779989 (0.115883)
Neigh time (%) = 5.1566 (0.766114)
Comm  time (%) = 32.8963 (4.88739)
Outpt time (%) = 2.08527 (0.309808)
Other time (%) = 32.3261 (4.80268)

Nlocal:    5292.5 ave 5427 max 5188 min
Histogram: 1 1 0 1 1 0 1 0 0 1
Nghost:    7874 ave 8058 max 7668 min
Histogram: 1 0 1 0 1 1 0 0 0 2
Neighs:    301816 ave 319145 max 290172 min
Histogram: 2 0 1 1 0 0 0 1 0 1
FullNghs: 603631 ave 637248 max 581835 min
Histogram: 2 0 1 1 0 0 0 1 0 1

Total # of neighbors = 3621786
Ave neighs/atom = 114.054
Ave special neighs/atom = 5.09986
Neighbor list builds = 100
Dangerous builds = 100
velocity all zero linear
WARNING: Use special bonds = 0,1,1 with bond style fene (bond_fene.cpp:189)
Memory usage per processor = 18.891 Mbytes
Step sdpd_kin pTemp 
  512000 1.0260366e+09 1.0017334e+09 
  512100 1.0276914e+09 1.0032797e+09 
  512200 1.0271778e+09 1.0026854e+09 
  512300 1.0302557e+09 1.0051242e+09 
  512400 1.0277909e+09 1.0024262e+09 
  512500 1.0287831e+09 1.003576e+09 
  512600 1.0307727e+09 1.0054178e+09 
  512700 1.0250013e+09 9.9936805e+08 
  512800 1.0388638e+09 1.0133621e+09 
  512900 1.0276086e+09 1.0019038e+09 
  513000 1.0256378e+09 9.9934236e+08 
Loop time of 675.162 on 6 procs for 1000 steps with 31755 atoms

Pair  time (%) = 599.062 (88.7287)
Bond  time (%) = 0.77958 (0.115466)
Neigh time (%) = 5.15594 (0.76366)
Comm  time (%) = 34.2252 (5.06919)
Outpt time (%) = 2.09433 (0.310196)
Other time (%) = 33.8447 (5.01283)

Nlocal:    5292.5 ave 5387 max 5134 min
Histogram: 1 0 0 1 0 0 1 0 1 2
Nghost:    7892.67 ave 8215 max 7713 min
Histogram: 1 2 1 0 0 0 1 0 0 1
Neighs:    301244 ave 310401 max 284087 min
Histogram: 1 0 0 1 0 0 0 1 1 2
FullNghs: 602487 ave 621055 max 570474 min
Histogram: 1 0 1 0 0 0 0 1 1 2

Total # of neighbors = 3614922
Ave neighs/atom = 113.838
Ave special neighs/atom = 5.09986
Neighbor list builds = 100
Dangerous builds = 100
velocity all zero linear
WARNING: Use special bonds = 0,1,1 with bond style fene (bond_fene.cpp:189)
Memory usage per processor = 18.891 Mbytes
Step sdpd_kin pTemp 
  513000 1.0256378e+09 9.9934236e+08 
  513100 1.0289161e+09 1.0029462e+09 
  513200 1.0340611e+09 1.0083841e+09 
  513300 1.0317123e+09 1.0057656e+09 
  513400 1.027355e+09  1.00175e+09 
  513500 1.0389671e+09 1.0129712e+09 
  513600 1.0360957e+09 1.0100645e+09 
  513700 1.0262839e+09 1.0004877e+09 
  513800 1.0283371e+09 1.0021679e+09 
  513900 1.024415e+09 9.9839582e+08 
  514000 1.0379501e+09 1.0122915e+09 
Loop time of 676.086 on 6 procs for 1000 steps with 31755 atoms

Pair  time (%) = 598.979 (88.5951)
Bond  time (%) = 0.771376 (0.114094)
Neigh time (%) = 5.14239 (0.760612)
Comm  time (%) = 33.144 (4.90233)
Outpt time (%) = 2.08955 (0.309065)
Other time (%) = 35.9596 (5.31879)

Nlocal:    5292.5 ave 5522 max 5101 min
Histogram: 1 0 2 0 1 0 0 1 0 1
Nghost:    7754.5 ave 8089 max 7643 min
Histogram: 2 3 0 0 0 0 0 0 0 1
Neighs:    301915 ave 322969 max 282046 min
Histogram: 1 0 0 2 0 1 0 1 0 1
FullNghs: 603829 ave 644984 max 564970 min
Histogram: 1 0 1 1 0 1 0 1 0 1

Total # of neighbors = 3622976
Ave neighs/atom = 114.092
Ave special neighs/atom = 5.09986
Neighbor list builds = 100
Dangerous builds = 100
velocity all zero linear
WARNING: Use special bonds = 0,1,1 with bond style fene (bond_fene.cpp:189)
Memory usage per processor = 18.891 Mbytes
Step sdpd_kin pTemp 
  514000  1.03795e+09 1.0122915e+09 
  514100 1.0366774e+09 1.0105022e+09 
  514200 1.030755e+09 1.0044776e+09 
  514300 1.0281614e+09 1.0022396e+09 
  514400 1.0288088e+09 1.0030413e+09 
  514500 1.0254516e+09 9.9993012e+08 
  514600 1.0265159e+09 1.0013006e+09 
  514700 1.0256377e+09 1.0003737e+09 
  514800 1.0209322e+09 9.9575049e+08 
  514900 1.0262791e+09 1.0010921e+09 
  515000 1.0312795e+09 1.0062287e+09 
Loop time of 682.425 on 6 procs for 1000 steps with 31755 atoms

Pair  time (%) = 601.251 (88.1051)
Bond  time (%) = 0.77662 (0.113803)
Neigh time (%) = 5.13043 (0.751795)
Comm  time (%) = 39.7737 (5.82829)
Outpt time (%) = 2.07626 (0.304247)
Other time (%) = 33.4168 (4.89678)

Nlocal:    5292.5 ave 5483 max 5124 min
Histogram: 2 0 0 1 0 1 0 0 1 1
Nghost:    7734.33 ave 8021 max 7585 min
Histogram: 2 0 1 1 1 0 0 0 0 1
Neighs:    302844 ave 321674 max 284472 min
Histogram: 2 0 0 0 2 0 0 0 0 2
FullNghs: 605689 ave 640772 max 570113 min
Histogram: 1 1 0 0 1 1 0 0 0 2

Total # of neighbors = 3634134
Ave neighs/atom = 114.443
Ave special neighs/atom = 5.09986
Neighbor list builds = 100
Dangerous builds = 100
velocity all zero linear
WARNING: Use special bonds = 0,1,1 with bond style fene (bond_fene.cpp:189)
Memory usage per processor = 18.891 Mbytes
Step sdpd_kin pTemp 
  515000 1.0312794e+09 1.0062287e+09 
  515100 1.030776e+09 1.0050151e+09 
  515200 1.0237048e+09 9.9814409e+08 
  515300 1.0270448e+09 1.0017801e+09 
  515400 1.0212827e+09 9.9577668e+08 
  515500 1.0317268e+09 1.0067263e+09 
  515600 1.0316192e+09 1.0060174e+09 
  515700 1.022365e+09 9.9707286e+08 
  515800 1.0251921e+09 1.0003873e+09 
  515900 1.0284952e+09 1.0034119e+09 
  516000 1.0159698e+09 9.9201737e+08 
Loop time of 690.507 on 6 procs for 1000 steps with 31755 atoms

Pair  time (%) = 602.918 (87.3152)
Bond  time (%) = 0.768951 (0.11136)
Neigh time (%) = 5.12895 (0.742779)
Comm  time (%) = 45.5872 (6.60198)
Outpt time (%) = 2.08577 (0.302064)
Other time (%) = 34.0189 (4.92665)

Nlocal:    5292.5 ave 5436 max 5121 min
Histogram: 1 0 0 1 2 0 0 0 0 2
Nghost:    7758 ave 7962 max 7498 min
Histogram: 1 0 0 1 0 0 3 0 0 1
Neighs:    301603 ave 317219 max 281261 min
Histogram: 1 0 0 1 0 2 0 0 0 2
FullNghs: 603206 ave 632617 max 564836 min
Histogram: 1 0 0 1 0 2 0 0 0 2

Total # of neighbors = 3619234
Ave neighs/atom = 113.974
Ave special neighs/atom = 5.09986
Neighbor list builds = 100
Dangerous builds = 100
velocity all zero linear
WARNING: Use special bonds = 0,1,1 with bond style fene (bond_fene.cpp:189)
Memory usage per processor = 18.891 Mbytes
Step sdpd_kin pTemp 
  516000 1.0159697e+09 9.9201737e+08 
  516100 1.0317728e+09 1.0077488e+09 
  516200 1.0210456e+09 9.9721578e+08 
  516300 1.0254921e+09 1.0020035e+09 
  516400 1.0209093e+09 9.9730118e+08 
  516500 1.0245801e+09 1.0002454e+09 
  516600 1.0279148e+09 1.0045138e+09 
  516700 1.0154764e+09 9.9189308e+08 
  516800 1.0382112e+09 1.0150341e+09 
  516900 1.0295777e+09 1.0059914e+09 
  517000 1.021509e+09 9.9838003e+08 
Loop time of 671.112 on 6 procs for 1000 steps with 31755 atoms

Pair  time (%) = 600.823 (89.5266)
Bond  time (%) = 0.779595 (0.116165)
Neigh time (%) = 5.15559 (0.768216)
Comm  time (%) = 28.1374 (4.19266)
Outpt time (%) = 2.09467 (0.31212)
Other time (%) = 34.1211 (5.08426)

Nlocal:    5292.5 ave 5389 max 5076 min
Histogram: 1 0 0 0 0 0 0 3 0 2
Nghost:    7850.33 ave 8050 max 7640 min
Histogram: 1 1 0 1 0 0 1 0 0 2
Neighs:    302513 ave 315946 max 277834 min
Histogram: 1 0 0 0 0 0 3 0 0 2
FullNghs: 605026 ave 631840 max 556844 min
Histogram: 1 0 0 0 0 0 3 0 0 2

Total # of neighbors = 3630156
Ave neighs/atom = 114.318
Ave special neighs/atom = 5.09986
Neighbor list builds = 100
Dangerous builds = 100
velocity all zero linear
WARNING: Use special bonds = 0,1,1 with bond style fene (bond_fene.cpp:189)
Memory usage per processor = 18.891 Mbytes
Step sdpd_kin pTemp 
  517000 1.021509e+09 9.9838003e+08 
  517100 1.0321339e+09 1.0092436e+09 
  517200 1.0277524e+09 1.004854e+09 
  517300 1.0309977e+09 1.007429e+09 
  517400 1.0203989e+09 9.9724141e+08 
  517500 1.0280354e+09 1.0049405e+09 
  517600 1.0211138e+09 9.9806261e+08 
  517700 1.0204885e+09 9.9689483e+08 
  517800 1.0260214e+09 1.002959e+09 
  517900 1.0253703e+09 1.0026268e+09 
  518000 1.0287538e+09 1.0061644e+09 
Loop time of 681.634 on 6 procs for 1000 steps with 31755 atoms

Pair  time (%) = 602.505 (88.3912)
Bond  time (%) = 0.773616 (0.113494)
Neigh time (%) = 5.14276 (0.754475)
Comm  time (%) = 38.1834 (5.60175)
Outpt time (%) = 2.0901 (0.30663)
Other time (%) = 32.9395 (4.83243)

Nlocal:    5292.5 ave 5444 max 5154 min
Histogram: 1 0 0 1 2 0 1 0 0 1
Nghost:    7854.17 ave 8123 max 7631 min
Histogram: 1 0 0 1 2 1 0 0 0 1
Neighs:    302676 ave 316299 max 288237 min
Histogram: 1 0 0 1 0 3 0 0 0 1
FullNghs: 605351 ave 633949 max 575938 min
Histogram: 1 0 0 1 0 3 0 0 0 1

Total # of neighbors = 3632106
Ave neighs/atom = 114.379
Ave special neighs/atom = 5.09986
Neighbor list builds = 100
Dangerous builds = 100
velocity all zero linear
WARNING: Use special bonds = 0,1,1 with bond style fene (bond_fene.cpp:189)
Memory usage per processor = 18.891 Mbytes
Step sdpd_kin pTemp 
  518000 1.0287538e+09 1.0061644e+09 
  518100 1.0250711e+09 1.0024366e+09 
  518200 1.021254e+09 9.9843703e+08 
  518300 1.0226349e+09 9.9979042e+08 
  518400 1.0305308e+09 1.0075016e+09 
  518500 1.0276034e+09 1.0051422e+09 
  518600 1.0208106e+09 9.9834535e+08 
  518700 1.0333116e+09 1.0107696e+09 
  518800 1.0349354e+09 1.0118645e+09 
  518900 1.0200536e+09 9.9740341e+08 
  519000 1.0295194e+09 1.0058925e+09 
Loop time of 686.272 on 6 procs for 1000 steps with 31755 atoms

Pair  time (%) = 603.316 (87.9121)
Bond  time (%) = 0.771493 (0.112418)
Neigh time (%) = 5.14469 (0.749657)
Comm  time (%) = 41.1073 (5.98995)
Outpt time (%) = 2.07883 (0.302916)
Other time (%) = 33.8532 (4.93292)

Nlocal:    5292.5 ave 5494 max 5166 min
Histogram: 2 0 0 1 2 0 0 0 0 1
Nghost:    7842.5 ave 8005 max 7661 min
Histogram: 1 0 1 0 2 0 0 0 0 2
Neighs:    302392 ave 320306 max 290379 min
Histogram: 2 0 0 0 2 1 0 0 0 1
FullNghs: 604784 ave 641146 max 577973 min
Histogram: 2 0 0 0 2 1 0 0 0 1

Total # of neighbors = 3628704
Ave neighs/atom = 114.272
Ave special neighs/atom = 5.09986
Neighbor list builds = 100
Dangerous builds = 100
velocity all zero linear
WARNING: Use special bonds = 0,1,1 with bond style fene (bond_fene.cpp:189)
Memory usage per processor = 18.891 Mbytes
Step sdpd_kin pTemp 
  519000 1.0295194e+09 1.0058925e+09 
  519100 1.0264864e+09 1.0028291e+09 
  519200 1.0257348e+09 1.0024649e+09 
  519300 1.0304353e+09 1.0065751e+09 
  519400 1.0345183e+09 1.0097976e+09 
  519500 1.0226832e+09 9.9830942e+08 
  519600 1.0275281e+09 1.0032212e+09 
  519700 1.0283416e+09 1.0034549e+09 
  519800 1.0332983e+09 1.0087509e+09 
  519900 1.0220481e+09 9.9782475e+08 
  520000 1.0189453e+09 9.9476136e+08 
Loop time of 675.232 on 6 procs for 1000 steps with 31755 atoms

Pair  time (%) = 601.881 (89.1369)
Bond  time (%) = 0.778739 (0.115329)
Neigh time (%) = 5.15272 (0.763104)
Comm  time (%) = 31.4248 (4.65393)
Outpt time (%) = 2.0967 (0.310515)
Other time (%) = 33.8984 (5.02026)

Nlocal:    5292.5 ave 5402 max 5134 min
Histogram: 1 0 0 1 0 0 2 0 0 2
Nghost:    7849.33 ave 8018 max 7669 min
Histogram: 2 0 0 1 0 0 0 1 0 2
Neighs:    302873 ave 312844 max 292629 min
Histogram: 1 1 0 0 0 1 1 1 0 1
FullNghs: 605745 ave 625771 max 585895 min
Histogram: 2 0 0 0 0 1 1 1 0 1

Total # of neighbors = 3634472
Ave neighs/atom = 114.454
Ave special neighs/atom = 5.09986
Neighbor list builds = 100
Dangerous builds = 99
velocity all zero linear
WARNING: Use special bonds = 0,1,1 with bond style fene (bond_fene.cpp:189)
Memory usage per processor = 18.891 Mbytes
Step sdpd_kin pTemp 
  520000 1.0189453e+09 9.9476136e+08 
  520100 1.0293352e+09 1.0052473e+09 
  520200 1.023692e+09 9.9936943e+08 
  520300 1.0347631e+09 1.0105087e+09 
  520400 1.0250424e+09 1.000932e+09 
  520500 1.0263409e+09 1.0019655e+09 
  520600 1.0269168e+09  1.00326e+09 
  520700  1.03073e+09 1.0078447e+09 
  520800 1.0371035e+09 1.0134235e+09 
  520900 1.0273208e+09 1.0040045e+09 
  521000 1.0308746e+09 1.0071115e+09 
Loop time of 679.514 on 6 procs for 1000 steps with 31755 atoms

Pair  time (%) = 605.437 (89.0985)
Bond  time (%) = 0.77701 (0.114348)
Neigh time (%) = 5.14725 (0.757491)
Comm  time (%) = 30.2745 (4.45531)
Outpt time (%) = 2.08048 (0.306172)
Other time (%) = 35.7978 (5.26814)

Nlocal:    5292.5 ave 5381 max 5146 min
Histogram: 1 0 0 0 1 1 0 1 0 2
Nghost:    7788 ave 8005 max 7620 min
Histogram: 2 0 1 0 1 0 0 0 0 2
Neighs:    303904 ave 313889 max 291238 min
Histogram: 1 0 0 1 1 0 0 2 0 1
FullNghs: 607808 ave 627811 max 583449 min
Histogram: 1 0 0 1 1 0 0 2 0 1

Total # of neighbors = 3646848
Ave neighs/atom = 114.843
Ave special neighs/atom = 5.09986
Neighbor list builds = 100
Dangerous builds = 100
velocity all zero linear
WARNING: Use special bonds = 0,1,1 with bond style fene (bond_fene.cpp:189)
Memory usage per processor = 18.891 Mbytes
Step sdpd_kin pTemp 
  521000 1.0308745e+09 1.0071115e+09 
  521100 1.0298139e+09 1.006477e+09 
  521200 1.0267799e+09 1.003635e+09 
  521300 1.0271566e+09 1.0035992e+09 
  521400 1.0362857e+09 1.0132876e+09 
  521500 1.0320238e+09 1.0087272e+09 
  521600 1.028366e+09 1.0048413e+09 
  521700 1.0238464e+09 1.0005337e+09 
  521800 1.0291114e+09 1.0053157e+09 
  521900 1.0224026e+09 9.9855829e+08 
  522000 1.0263181e+09 1.0031249e+09 
Loop time of 674.113 on 6 procs for 1000 steps with 31755 atoms

Pair  time (%) = 604.99 (89.7461)
Bond  time (%) = 0.777707 (0.115367)
Neigh time (%) = 5.16529 (0.766235)
Comm  time (%) = 27.7561 (4.11743)
Outpt time (%) = 2.08168 (0.308802)
Other time (%) = 33.3421 (4.94606)

Nlocal:    5292.5 ave 5446 max 5145 min
Histogram: 1 0 0 0 2 2 0 0 0 1
Nghost:    7833.67 ave 8007 max 7737 min
Histogram: 2 0 0 3 0 0 0 0 0 1
Neighs:    304247 ave 316620 max 292068 min
Histogram: 1 0 0 2 1 0 0 1 0 1
FullNghs: 608493 ave 632446 max 584114 min
Histogram: 1 0 0 1 2 0 0 1 0 1

Total # of neighbors = 3650960
Ave neighs/atom = 114.973
Ave special neighs/atom = 5.09986
Neighbor list builds = 100
Dangerous builds = 100
velocity all zero linear
WARNING: Use special bonds = 0,1,1 with bond style fene (bond_fene.cpp:189)
Memory usage per processor = 18.891 Mbytes
Step sdpd_kin pTemp 
  522000 1.0263181e+09 1.0031249e+09 
  522100 1.0311181e+09 1.0074447e+09 
  522200 1.0365119e+09 1.0133072e+09 
  522300 1.0296009e+09 1.0056305e+09 
  522400 1.0326749e+09 1.0087453e+09 
  522500 1.0234367e+09 9.9930853e+08 
  522600 1.025022e+09 1.001126e+09 
  522700 1.0268955e+09 1.0027722e+09 
  522800 1.0274835e+09 1.0031038e+09 
  522900 1.0267212e+09 1.0020288e+09 
  523000 1.0278555e+09 1.003076e+09 
Loop time of 667.284 on 6 procs for 1000 steps with 31755 atoms

Pair  time (%) = 604.557 (90.5997)
Bond  time (%) = 0.787685 (0.118043)
Neigh time (%) = 5.16698 (0.774329)
Comm  time (%) = 20.5276 (3.07629)
Outpt time (%) = 2.09654 (0.314191)
Other time (%) = 34.1481 (5.11748)

Nlocal:    5292.5 ave 5436 max 5111 min
Histogram: 1 0 1 0 0 1 0 1 1 1
Nghost:    7806.17 ave 8057 max 7720 min
Histogram: 3 1 1 0 0 0 0 0 0 1
Neighs:    304564 ave 313573 max 289433 min
Histogram: 1 0 0 1 0 0 1 0 1 2
FullNghs: 609128 ave 626941 max 577772 min
Histogram: 1 0 0 1 0 0 1 0 1 2

Total # of neighbors = 3654768
Ave neighs/atom = 115.093
Ave special neighs/atom = 5.09986
Neighbor list builds = 100
Dangerous builds = 100
velocity all zero linear
WARNING: Use special bonds = 0,1,1 with bond style fene (bond_fene.cpp:189)
Memory usage per processor = 18.891 Mbytes
Step sdpd_kin pTemp 
  523000 1.0278553e+09 1.003076e+09 
  523100 1.0261045e+09 1.0017019e+09 
  523200 1.0335579e+09 1.0090746e+09 
  523300 1.0205552e+09 9.957224e+08 
  523400 1.0174797e+09 9.9277658e+08 
  523500 1.0240579e+09 9.9976832e+08 
  523600 1.0278506e+09 1.0034772e+09 
  523700 1.0243247e+09 9.9968297e+08 
  523800 1.0276731e+09 1.003323e+09 
  523900 1.0220399e+09 9.9760855e+08 
  524000 1.0299722e+09 1.005387e+09 
Loop time of 673.412 on 6 procs for 1000 steps with 31755 atoms

Pair  time (%) = 604.647 (89.7886)
Bond  time (%) = 0.778069 (0.115541)
Neigh time (%) = 5.17509 (0.768487)
Comm  time (%) = 26.1584 (3.88446)
Outpt time (%) = 2.10141 (0.312054)
Other time (%) = 34.5519 (5.13088)

Nlocal:    5292.5 ave 5374 max 5192 min
Histogram: 1 0 0 1 0 1 0 2 0 1
Nghost:    7741 ave 7969 max 7585 min
Histogram: 2 0 0 1 1 1 0 0 0 1
Neighs:    302550 ave 308895 max 293495 min
Histogram: 1 0 1 0 0 0 1 1 1 1
FullNghs: 605100 ave 617567 max 585947 min
Histogram: 1 0 1 0 0 0 0 1 2 1

Total # of neighbors = 3630600
Ave neighs/atom = 114.332
Ave special neighs/atom = 5.09986
Neighbor list builds = 100
Dangerous builds = 100
velocity all zero linear
WARNING: Use special bonds = 0,1,1 with bond style fene (bond_fene.cpp:189)
Memory usage per processor = 18.1281 Mbytes
Step sdpd_kin pTemp 
  524000 1.0299721e+09 1.005387e+09 
  524100 1.0305718e+09 1.0062037e+09 
  524200 1.0256822e+09 1.0014046e+09 
  524300 1.0160555e+09 9.9213065e+08 
  524400 1.0316713e+09 1.0077386e+09 
  524500 1.0220089e+09 9.9876905e+08 
  524600 1.0249347e+09 1.0013271e+09 
  524700 1.0224842e+09 9.9902294e+08 
  524800 1.0243706e+09 1.0012426e+09 
  524900 1.0209512e+09 9.9760056e+08 
  525000 1.0365135e+09 1.0132776e+09 
Loop time of 663.695 on 6 procs for 1000 steps with 31755 atoms

Pair  time (%) = 603.407 (90.9162)
Bond  time (%) = 0.782357 (0.117879)
Neigh time (%) = 5.17121 (0.779155)
Comm  time (%) = 18.499 (2.78728)
Outpt time (%) = 2.10526 (0.317203)
Other time (%) = 33.7306 (5.08225)

Nlocal:    5292.5 ave 5360 max 5233 min
Histogram: 1 0 1 0 2 0 0 1 0 1
Nghost:    7737.5 ave 7907 max 7567 min
Histogram: 2 0 0 0 1 0 0 1 1 1
Neighs:    303369 ave 309502 max 298825 min
Histogram: 1 1 0 0 3 0 0 0 0 1
FullNghs: 606737 ave 617767 max 596305 min
Histogram: 1 0 1 0 0 3 0 0 0 1

Total # of neighbors = 3640424
Ave neighs/atom = 114.641
Ave special neighs/atom = 5.09986
Neighbor list builds = 100
Dangerous builds = 100
velocity all zero linear
WARNING: Use special bonds = 0,1,1 with bond style fene (bond_fene.cpp:189)
Memory usage per processor = 18.891 Mbytes
Step sdpd_kin pTemp 
  525000 1.0365135e+09 1.0132776e+09 
  525100 1.0155674e+09 9.9234971e+08 
  525200 1.0234692e+09 9.9987018e+08 
  525300 1.0226537e+09 9.993007e+08 
  525400 1.0266878e+09 1.0034382e+09 
  525500 1.0239696e+09 1.0008319e+09 
  525600 1.0229556e+09 9.9942874e+08 
  525700 1.0233162e+09 1.0001173e+09 
  525800 1.0307511e+09 1.0071764e+09 
  525900 1.0235866e+09 1.0008237e+09 
  526000 1.0219112e+09 9.992302e+08 
Loop time of 668.843 on 6 procs for 1000 steps with 31755 atoms

Pair  time (%) = 604.486 (90.3778)
Bond  time (%) = 0.774194 (0.115751)
Neigh time (%) = 5.14697 (0.769534)
Comm  time (%) = 22.4476 (3.35618)
Outpt time (%) = 2.09136 (0.312683)
Other time (%) = 33.8971 (5.06802)

Nlocal:    5292.5 ave 5441 max 5158 min
Histogram: 1 0 2 0 0 1 0 0 1 1
Nghost:    7652 ave 7761 max 7487 min
Histogram: 1 0 0 0 1 0 1 1 1 1
Neighs:    302950 ave 317692 max 290601 min
Histogram: 1 1 1 0 0 1 0 1 0 1
FullNghs: 605900 ave 635467 max 580695 min
Histogram: 1 1 1 0 0 1 0 1 0 1

Total # of neighbors = 3635398
Ave neighs/atom = 114.483
Ave special neighs/atom = 5.09986
Neighbor list builds = 100
Dangerous builds = 100
velocity all zero linear
WARNING: Use special bonds = 0,1,1 with bond style fene (bond_fene.cpp:189)
Memory usage per processor = 18.1281 Mbytes
Step sdpd_kin pTemp 
  526000 1.0219111e+09 9.992302e+08 
  526100 1.0272982e+09 1.0042239e+09 
  526200 1.0291833e+09 1.0061672e+09 
  526300 1.0214633e+09 9.9856067e+08 
  526400 1.0242779e+09 1.001742e+09 
  526500 1.0242665e+09 1.0015743e+09 
  526600 1.0253189e+09 1.0025632e+09 
  526700 1.0297844e+09 1.0070652e+09 
  526800 1.0306609e+09 1.0083336e+09 
  526900 1.0260271e+09 1.0037637e+09 
  527000 1.029649e+09 1.0071314e+09 
Loop time of 672.405 on 6 procs for 1000 steps with 31755 atoms

Pair  time (%) = 603.687 (89.7803)
Bond  time (%) = 0.771209 (0.114694)
Neigh time (%) = 5.15212 (0.766223)
Comm  time (%) = 26.5639 (3.95059)
Outpt time (%) = 2.09487 (0.311549)
Other time (%) = 34.1355 (5.07662)

Nlocal:    5292.5 ave 5391 max 5211 min
Histogram: 1 1 1 0 0 1 1 0 0 1
Nghost:    7827.17 ave 8069 max 7611 min
Histogram: 1 0 1 0 1 2 0 0 0 1
Neighs:    302719 ave 310950 max 295532 min
Histogram: 2 0 0 1 0 0 1 1 0 1
FullNghs: 605438 ave 620241 max 591012 min
Histogram: 2 0 1 0 0 0 0 1 1 1

Total # of neighbors = 3632626
Ave neighs/atom = 114.395
Ave special neighs/atom = 5.09986
Neighbor list builds = 100
Dangerous builds = 100
velocity all zero linear
WARNING: Use special bonds = 0,1,1 with bond style fene (bond_fene.cpp:189)
Memory usage per processor = 18.891 Mbytes
Step sdpd_kin pTemp 
  527000 1.029649e+09 1.0071314e+09 
  527100 1.0272262e+09 1.004529e+09 
  527200 1.0156592e+09 9.9260255e+08 
  527300 1.0263641e+09 1.0036205e+09 
  527400 1.0227145e+09 1.0000849e+09 
  527500 1.032169e+09 1.0093511e+09 
  527600 1.0203344e+09 9.9784843e+08 
  527700 1.0303751e+09 1.0083245e+09 
  527800 1.0243484e+09 1.0026577e+09 
  527900 1.0325958e+09 1.0107961e+09 
  528000 1.0324634e+09 1.0108919e+09 
Loop time of 671.966 on 6 procs for 1000 steps with 31755 atoms

Pair  time (%) = 603.762 (89.8501)
Bond  time (%) = 0.77757 (0.115716)
Neigh time (%) = 5.16423 (0.768525)
Comm  time (%) = 25.9969 (3.86878)
Outpt time (%) = 2.09284 (0.31145)
Other time (%) = 34.1726 (5.08547)

Nlocal:    5292.5 ave 5386 max 5177 min
Histogram: 1 0 1 0 1 0 0 1 0 2
Nghost:    7849.33 ave 7999 max 7703 min
Histogram: 1 0 0 2 0 1 0 1 0 1
Neighs:    302234 ave 311561 max 292099 min
Histogram: 2 0 0 0 1 0 1 0 0 2
FullNghs: 604468 ave 623702 max 583608 min
Histogram: 2 0 0 0 1 0 1 0 0 2

Total # of neighbors = 3626806
Ave neighs/atom = 114.212
Ave special neighs/atom = 5.09986
Neighbor list builds = 100
Dangerous builds = 100
velocity all zero linear
WARNING: Use special bonds = 0,1,1 with bond style fene (bond_fene.cpp:189)
Memory usage per processor = 18.1281 Mbytes
Step sdpd_kin pTemp 
  528000 1.0324634e+09 1.0108919e+09 
  528100 1.0287649e+09 1.0070409e+09 
  528200 1.0238076e+09 1.0023097e+09 
  528300 1.0322079e+09 1.0108805e+09 
  528400 1.0200711e+09 9.9860959e+08 
  528500 1.0302285e+09 1.0084465e+09 
  528600 1.0328209e+09 1.011271e+09 
  528700 1.0267885e+09 1.0047848e+09 
  528800 1.0308939e+09 1.0088798e+09 
  528900 1.0226779e+09 1.0003735e+09 
  529000 1.0268783e+09 1.0051507e+09 
Loop time of 674.066 on 6 procs for 1000 steps with 31755 atoms

Pair  time (%) = 604.543 (89.6861)
Bond  time (%) = 0.77409 (0.114839)
Neigh time (%) = 5.15673 (0.765019)
Comm  time (%) = 27.4371 (4.07038)
Outpt time (%) = 2.10014 (0.311563)
Other time (%) = 34.0546 (5.05211)

Nlocal:    5292.5 ave 5358 max 5170 min
Histogram: 1 0 0 0 1 1 0 0 0 3
Nghost:    7804.67 ave 7894 max 7643 min
Histogram: 1 0 0 1 0 0 0 2 0 2
Neighs:    302794 ave 311553 max 291322 min
Histogram: 1 1 0 0 0 1 0 0 2 1
FullNghs: 605587 ave 620944 max 581234 min
Histogram: 1 0 1 0 0 1 0 0 0 3

Total # of neighbors = 3633522
Ave neighs/atom = 114.424
Ave special neighs/atom = 5.09986
Neighbor list builds = 100
Dangerous builds = 100
velocity all zero linear
WARNING: Use special bonds = 0,1,1 with bond style fene (bond_fene.cpp:189)
Memory usage per processor = 18.1281 Mbytes
Step sdpd_kin pTemp 
  529000 1.0268781e+09 1.0051507e+09 
  529100 1.0287487e+09 1.0074144e+09 
  529200 1.0336153e+09 1.0125413e+09 
  529300 1.0258634e+09 1.0052457e+09 
  529400 1.0178805e+09 9.9777084e+08 
  529500 1.0199127e+09 9.9934523e+08 
  529600 1.0319238e+09 1.0119398e+09 
  529700 1.0136331e+09 9.931995e+08 
  529800 1.0302111e+09 1.0096725e+09 
  529900 1.0142601e+09 9.939476e+08 
  530000 1.0198032e+09 9.9970145e+08 
Loop time of 686.395 on 6 procs for 1000 steps with 31755 atoms

Pair  time (%) = 603.083 (87.8624)
Bond  time (%) = 0.770775 (0.112293)
Neigh time (%) = 5.14337 (0.74933)
Comm  time (%) = 42.681 (6.21814)
Outpt time (%) = 2.10616 (0.306844)
Other time (%) = 32.6108 (4.75103)

Nlocal:    5292.5 ave 5556 max 5179 min
Histogram: 1 2 2 0 0 0 0 0 0 1
Nghost:    7693.17 ave 7965 max 7333 min
Histogram: 1 0 0 1 1 0 0 1 1 1
Neighs:    302362 ave 329222 max 292723 min
Histogram: 2 2 1 0 0 0 0 0 0 1
FullNghs: 604723 ave 657340 max 586414 min
Histogram: 2 2 1 0 0 0 0 0 0 1

Total # of neighbors = 3628338
Ave neighs/atom = 114.26
Ave special neighs/atom = 5.09986
Neighbor list builds = 100
Dangerous builds = 99
velocity all zero linear
WARNING: Use special bonds = 0,1,1 with bond style fene (bond_fene.cpp:189)
Memory usage per processor = 18.891 Mbytes
Step sdpd_kin pTemp 
  530000 1.0198029e+09 9.9970145e+08 
  530100 1.0197999e+09   9.9926e+08 
  530200 1.0208473e+09 1.0004864e+09 
  530300 1.0216218e+09 1.0013656e+09 
  530400 1.0232262e+09 1.0035192e+09 
  530500 1.0267703e+09 1.0072217e+09 
  530600 1.0219264e+09 1.0022044e+09 
  530700 1.0201483e+09 1.0003516e+09 
  530800 1.0223503e+09 1.0024923e+09 
  530900 1.0229155e+09 1.0026649e+09 
  531000 1.0295011e+09 1.009309e+09 
Loop time of 682.078 on 6 procs for 1000 steps with 31755 atoms

Pair  time (%) = 605.095 (88.7135)
Bond  time (%) = 0.775628 (0.113716)
Neigh time (%) = 5.14799 (0.754751)
Comm  time (%) = 35.8723 (5.25926)
Outpt time (%) = 2.101 (0.308029)
Other time (%) = 33.0861 (4.85079)

Nlocal:    5292.5 ave 5405 max 5068 min
Histogram: 1 0 0 0 0 2 0 0 1 2
Nghost:    7753.83 ave 7852 max 7536 min
Histogram: 1 0 0 0 0 1 0 1 1 2
Neighs:    302966 ave 316355 max 279621 min
Histogram: 1 0 0 0 0 2 0 1 1 1
FullNghs: 605933 ave 630502 max 558837 min
Histogram: 1 0 0 0 0 0 2 0 2 1

Total # of neighbors = 3635598
Ave neighs/atom = 114.489
Ave special neighs/atom = 5.09986
Neighbor list builds = 100
Dangerous builds = 100
velocity all zero linear
WARNING: Use special bonds = 0,1,1 with bond style fene (bond_fene.cpp:189)
Memory usage per processor = 18.891 Mbytes
Step sdpd_kin pTemp 
  531000 1.029501e+09 1.009309e+09 
  531100 1.0224545e+09 1.0022654e+09 
  531200 1.0147901e+09 9.9454393e+08 
  531300 1.0208119e+09 1.0001628e+09 
  531400 1.012638e+09 9.924551e+08 
  531500 1.0216903e+09 1.001433e+09 
  531600 1.0205909e+09 9.9958673e+08 
  531700 1.016632e+09 9.9557973e+08 
  531800 1.0150167e+09 9.944822e+08 
  531900 1.0197475e+09 9.9940884e+08 
  532000 1.0219388e+09  1.00137e+09 
Loop time of 674.423 on 6 procs for 1000 steps with 31755 atoms

Pair  time (%) = 603.405 (89.4699)
Bond  time (%) = 0.777615 (0.115301)
Neigh time (%) = 5.14548 (0.762945)
Comm  time (%) = 29.3706 (4.35493)
Outpt time (%) = 2.1011 (0.31154)
Other time (%) = 33.6227 (4.98541)

Nlocal:    5292.5 ave 5434 max 5125 min
Histogram: 1 1 0 1 0 0 0 1 0 2
Nghost:    7928 ave 8147 max 7756 min
Histogram: 1 0 1 0 3 0 0 0 0 1
Neighs:    302793 ave 316219 max 284860 min
Histogram: 1 1 0 0 0 1 0 1 0 2
FullNghs: 605586 ave 630629 max 569673 min
Histogram: 1 0 1 0 0 1 0 0 1 2

Total # of neighbors = 3633516
Ave neighs/atom = 114.423
Ave special neighs/atom = 5.09986
Neighbor list builds = 100
Dangerous builds = 100
velocity all zero linear
WARNING: Use special bonds = 0,1,1 with bond style fene (bond_fene.cpp:189)
Memory usage per processor = 18.891 Mbytes
Step sdpd_kin pTemp 
  532000 1.0219388e+09  1.00137e+09 
  532100 1.0251441e+09 1.0042537e+09 
  532200 1.0194009e+09 9.9833548e+08 
  532300 1.0204418e+09 9.9940852e+08 
  532400 1.0234656e+09 1.0028629e+09 
  532500 1.013358e+09 9.9286454e+08 
  532600 1.0333767e+09 1.0130547e+09 
  532700 1.0113742e+09 9.9094881e+08 
  532800 1.0260365e+09 1.0054601e+09 
  532900 1.022293e+09 1.0019359e+09 
  533000 1.0300098e+09 1.0098193e+09 
Loop time of 680.489 on 6 procs for 1000 steps with 31755 atoms

Pair  time (%) = 603.519 (88.689)
Bond  time (%) = 0.778535 (0.114408)
Neigh time (%) = 5.1482 (0.756545)
Comm  time (%) = 35.3355 (5.19266)
Outpt time (%) = 2.11336 (0.310565)
Other time (%) = 33.5942 (4.93678)

Nlocal:    5292.5 ave 5425 max 5161 min
Histogram: 1 0 0 2 1 0 0 0 1 1
Nghost:    7843 ave 7948 max 7684 min
Histogram: 1 0 0 0 1 0 2 0 1 1
Neighs:    302540 ave 316853 max 291078 min
Histogram: 1 1 2 0 0 0 0 0 0 2
FullNghs: 605081 ave 634139 max 583800 min
Histogram: 1 2 1 0 0 0 0 0 0 2

Total # of neighbors = 3630484
Ave neighs/atom = 114.328
Ave special neighs/atom = 5.09986
Neighbor list builds = 100
Dangerous builds = 100
velocity all zero linear
WARNING: Use special bonds = 0,1,1 with bond style fene (bond_fene.cpp:189)
Memory usage per processor = 18.891 Mbytes
Step sdpd_kin pTemp 
  533000 1.0300097e+09 1.0098193e+09 
  533100 1.0186484e+09 9.9848658e+08 
  533200 1.0221854e+09 1.0023928e+09 
  533300 1.0241787e+09 1.0040001e+09 
  533400 1.0255812e+09 1.0056364e+09 
  533500 1.0214843e+09 1.0010746e+09 
  533600 1.0163097e+09 9.9619645e+08 
  533700 1.019344e+09 9.985914e+08 
  533800 1.0258754e+09 1.0049581e+09 
  533900 1.0289122e+09 1.0081335e+09 
  534000 1.0181129e+09 9.9702273e+08 
Loop time of 664.675 on 6 procs for 1000 steps with 31755 atoms

Pair  time (%) = 600.431 (90.3345)
Bond  time (%) = 0.784522 (0.118031)
Neigh time (%) = 5.15411 (0.775433)
Comm  time (%) = 23.0395 (3.46628)
Outpt time (%) = 2.10156 (0.316179)
Other time (%) = 33.1644 (4.98957)

Nlocal:    5292.5 ave 5471 max 5104 min
Histogram: 1 0 1 0 1 0 1 1 0 1
Nghost:    7880.17 ave 8020 max 7747 min
Histogram: 2 0 0 0 0 1 2 0 0 1
Neighs:    302528 ave 317187 max 284686 min
Histogram: 1 0 0 1 1 0 0 2 0 1
FullNghs: 605056 ave 635481 max 569246 min
Histogram: 1 0 0 1 1 0 0 2 0 1

Total # of neighbors = 3630338
Ave neighs/atom = 114.323
Ave special neighs/atom = 5.09986
Neighbor list builds = 100
Dangerous builds = 100
velocity all zero linear
WARNING: Use special bonds = 0,1,1 with bond style fene (bond_fene.cpp:189)
Memory usage per processor = 18.891 Mbytes
Step sdpd_kin pTemp 
  534000 1.0181128e+09 9.9702273e+08 
  534100 1.0257777e+09 1.0040397e+09 
  534200 1.0249544e+09 1.0036585e+09 
  534300 1.0201022e+09 9.9914197e+08 
  534400 1.0207158e+09 9.9947423e+08 
  534500 1.0192059e+09 9.9834344e+08 
  534600 1.026145e+09 1.0046204e+09 
  534700 1.0227919e+09 1.0018074e+09 
  534800 1.0223047e+09 1.0016539e+09 
  534900 1.0209496e+09 9.998548e+08 
  535000 1.0258971e+09 1.0048141e+09 
Loop time of 668.18 on 6 procs for 1000 steps with 31755 atoms

Pair  time (%) = 601.004 (89.9464)
Bond  time (%) = 0.77941 (0.116647)
Neigh time (%) = 5.14038 (0.769311)
Comm  time (%) = 26.4572 (3.95959)
Outpt time (%) = 2.11072 (0.31589)
Other time (%) = 32.6884 (4.89216)

Nlocal:    5292.5 ave 5467 max 5169 min
Histogram: 3 0 0 0 0 0 1 1 0 1
Nghost:    7855.83 ave 7971 max 7711 min
Histogram: 1 0 0 0 1 2 0 0 1 1
Neighs:    300763 ave 317795 max 287189 min
Histogram: 2 1 0 0 0 0 1 0 1 1
FullNghs: 601526 ave 635273 max 574657 min
Histogram: 2 1 0 0 0 0 1 0 1 1

Total # of neighbors = 3609154
Ave neighs/atom = 113.656
Ave special neighs/atom = 5.09986
Neighbor list builds = 100
Dangerous builds = 100
velocity all zero linear
WARNING: Use special bonds = 0,1,1 with bond style fene (bond_fene.cpp:189)
Memory usage per processor = 18.891 Mbytes
Step sdpd_kin pTemp 
  535000 1.025897e+09 1.0048141e+09 
  535100 1.0231065e+09 1.0016571e+09 
  535200 1.0366178e+09 1.0153769e+09 
  535300 1.0217623e+09 1.0006204e+09 
  535400 1.0193363e+09 9.9753632e+08 
  535500 1.0232182e+09 1.0024931e+09 
  535600 1.0208193e+09 1.0005599e+09 
  535700 1.0181249e+09 9.9766414e+08 
  535800 1.0184165e+09 9.9854955e+08 
  535900 1.0222335e+09 1.002088e+09 
  536000 1.0247214e+09 1.004561e+09 
Loop time of 677.882 on 6 procs for 1000 steps with 31755 atoms

Pair  time (%) = 598.849 (88.3411)
Bond  time (%) = 0.778075 (0.11478)
Neigh time (%) = 5.12001 (0.755296)
Comm  time (%) = 37.6121 (5.54848)
Outpt time (%) = 2.10795 (0.310962)
Other time (%) = 33.4153 (4.92937)

Nlocal:    5292.5 ave 5481 max 5168 min
Histogram: 2 0 2 0 0 0 0 0 1 1
Nghost:    7928 ave 8078 max 7868 min
Histogram: 2 2 0 1 0 0 0 0 0 1
Neighs:    301552 ave 321578 max 282803 min
Histogram: 1 0 1 1 1 0 0 0 0 2
FullNghs: 603103 ave 643377 max 566984 min
Histogram: 1 0 1 2 0 0 0 0 0 2

Total # of neighbors = 3618620
Ave neighs/atom = 113.954
Ave special neighs/atom = 5.09986
Neighbor list builds = 100
Dangerous builds = 100
velocity all zero linear
WARNING: Use special bonds = 0,1,1 with bond style fene (bond_fene.cpp:189)
Memory usage per processor = 18.891 Mbytes
Step sdpd_kin pTemp 
  536000 1.0247213e+09 1.004561e+09 
  536100 1.0165653e+09 9.9645323e+08 
  536200 1.0258138e+09 1.0050366e+09 
  536300 1.0263615e+09 1.005138e+09 
  536400 1.0285879e+09 1.0079339e+09 
  536500 1.0249628e+09 1.0046435e+09 
  536600 1.0230176e+09 1.0025576e+09 
  536700 1.0286154e+09 1.0078959e+09 
  536800  1.03717e+09 1.0164468e+09 
  536900 1.0250741e+09 1.0037493e+09 
  537000 1.0283391e+09 1.0072436e+09 
Loop time of 686.57 on 6 procs for 1000 steps with 31755 atoms

Pair  time (%) = 600.892 (87.5209)
Bond  time (%) = 0.77309 (0.112602)
Neigh time (%) = 5.141 (0.748795)
Comm  time (%) = 44.4327 (6.47169)
Outpt time (%) = 2.10847 (0.307102)
Other time (%) = 33.2227 (4.83893)

Nlocal:    5292.5 ave 5472 max 5055 min
Histogram: 1 0 0 0 2 0 1 0 0 2
Nghost:    7803.5 ave 7980 max 7619 min
Histogram: 1 1 0 1 0 0 0 1 1 1
Neighs:    302498 ave 322732 max 274548 min
Histogram: 1 0 0 0 1 1 1 0 1 1
FullNghs: 604996 ave 646096 max 549687 min
Histogram: 1 0 0 0 1 1 1 0 1 1

Total # of neighbors = 3629976
Ave neighs/atom = 114.312
Ave special neighs/atom = 5.09986
Neighbor list builds = 100
Dangerous builds = 100
velocity all zero linear
WARNING: Use special bonds = 0,1,1 with bond style fene (bond_fene.cpp:189)
Memory usage per processor = 18.891 Mbytes
Step sdpd_kin pTemp 
  537000 1.0283388e+09 1.0072436e+09 
  537100 1.0236887e+09 1.0029093e+09 
  537200 1.0231725e+09 1.0025337e+09 
  537300 1.0232363e+09 1.0024469e+09 
  537400 1.0268447e+09 1.0056924e+09 
  537500 1.0258921e+09 1.0044723e+09 
  537600 1.023626e+09 1.002449e+09 
  537700 1.0277102e+09 1.0062762e+09 
  537800 1.022417e+09 1.001385e+09 
  537900 1.0302937e+09 1.0088086e+09 
  538000 1.0267398e+09 1.0054727e+09 
Loop time of 672.886 on 6 procs for 1000 steps with 31755 atoms

Pair  time (%) = 601.825 (89.4394)
Bond  time (%) = 0.769551 (0.114366)
Neigh time (%) = 5.1578 (0.766519)
Comm  time (%) = 30.0986 (4.47307)
Outpt time (%) = 2.10456 (0.312767)
Other time (%) = 32.93 (4.89385)

Nlocal:    5292.5 ave 5380 max 5164 min
Histogram: 1 0 0 1 1 0 0 0 1 2
Nghost:    7751.33 ave 7889 max 7532 min
Histogram: 1 0 1 0 0 1 0 0 1 2
Neighs:    303098 ave 313066 max 286046 min
Histogram: 1 0 0 1 0 0 1 0 1 2
FullNghs: 606196 ave 626942 max 572423 min
Histogram: 1 0 0 1 0 1 0 0 1 2

Total # of neighbors = 3637178
Ave neighs/atom = 114.539
Ave special neighs/atom = 5.09986
Neighbor list builds = 100
Dangerous builds = 100
velocity all zero linear
WARNING: Use special bonds = 0,1,1 with bond style fene (bond_fene.cpp:189)
Memory usage per processor = 18.891 Mbytes
Step sdpd_kin pTemp 
  538000 1.0267395e+09 1.0054727e+09 
  538100 1.029092e+09 1.0083315e+09 
  538200 1.0216087e+09  1.00056e+09 
  538300 1.0281544e+09 1.0067187e+09 
  538400 1.0257378e+09 1.0040281e+09 
  538500 1.0303523e+09 1.0090877e+09 
  538600 1.0159463e+09 9.9481865e+08 
  538700 1.0221701e+09 1.0010502e+09 
  538800 1.0254324e+09 1.004208e+09 
  538900 1.0200861e+09 9.9843496e+08 
  539000 1.0185084e+09 9.9707296e+08 
Loop time of 670.296 on 6 procs for 1000 steps with 31755 atoms

Pair  time (%) = 600.917 (89.6495)
Bond  time (%) = 0.778918 (0.116205)
Neigh time (%) = 5.14092 (0.766963)
Comm  time (%) = 28.3768 (4.23348)
Outpt time (%) = 2.10811 (0.314505)
Other time (%) = 32.974 (4.91932)

Nlocal:    5292.5 ave 5440 max 5160 min
Histogram: 1 0 1 2 0 0 0 0 0 2
Nghost:    7783.17 ave 7882 max 7559 min
Histogram: 1 0 0 0 0 1 0 1 1 2
Neighs:    302650 ave 317597 max 290936 min
Histogram: 1 1 1 1 0 0 0 0 0 2
FullNghs: 605301 ave 636192 max 581000 min
Histogram: 1 1 1 1 0 0 0 0 1 1

Total # of neighbors = 3631804
Ave neighs/atom = 114.37
Ave special neighs/atom = 5.09986
Neighbor list builds = 100
Dangerous builds = 100
velocity all zero linear
WARNING: Use special bonds = 0,1,1 with bond style fene (bond_fene.cpp:189)
Memory usage per processor = 18.891 Mbytes
Step sdpd_kin pTemp 
  539000 1.0185081e+09 9.9707296e+08 
  539100 1.0185312e+09 9.9732049e+08 
  539200 1.0405362e+09 1.0189093e+09 
  539300 1.0158085e+09 9.9425462e+08 
  539400 1.026898e+09 1.0048773e+09 
  539500 1.0236233e+09 1.0025245e+09 
  539600 1.0184613e+09 9.9694814e+08 
  539700 1.0206272e+09 9.9926009e+08 
  539800 1.0170501e+09 9.9590184e+08 
  539900 1.020973e+09 9.9911276e+08 
  540000 1.0296281e+09 1.0078668e+09 
Loop time of 672.859 on 6 procs for 1000 steps with 31755 atoms

Pair  time (%) = 601.314 (89.3671)
Bond  time (%) = 0.775916 (0.115316)
Neigh time (%) = 5.14968 (0.765343)
Comm  time (%) = 30.7552 (4.57082)
Outpt time (%) = 2.12317 (0.315544)
Other time (%) = 32.7407 (4.86591)

Nlocal:    5292.5 ave 5381 max 5141 min
Histogram: 1 0 0 0 0 0 2 1 1 1
Nghost:    7744 ave 7984 max 7445 min
Histogram: 1 0 1 0 0 0 2 1 0 1
Neighs:    302820 ave 313319 max 283053 min
Histogram: 1 0 0 0 0 1 1 1 0 2
FullNghs: 605640 ave 625251 max 567907 min
Histogram: 1 0 0 0 0 1 1 1 0 2

Total # of neighbors = 3633842
Ave neighs/atom = 114.434
Ave special neighs/atom = 5.09986
Neighbor list builds = 100
Dangerous builds = 99
velocity all zero linear
WARNING: Use special bonds = 0,1,1 with bond style fene (bond_fene.cpp:189)
Memory usage per processor = 18.891 Mbytes
Step sdpd_kin pTemp 
  540000 1.0296277e+09 1.0078668e+09 
  540100 1.023342e+09 1.0017834e+09 
  540200 1.0291248e+09 1.0071215e+09 
  540300 1.0352456e+09 1.0130466e+09 
  540400 1.0260272e+09 1.0039362e+09 
  540500 1.0204721e+09 9.9813198e+08 
  540600 1.0276615e+09 1.0052326e+09 
  540700 1.0228181e+09 1.0004544e+09 
  540800 1.0146046e+09 9.917602e+08 
  540900 1.0206768e+09 9.9814086e+08 
  541000 1.0300143e+09 1.0076798e+09 
Loop time of 662.898 on 6 procs for 1000 steps with 31755 atoms

Pair  time (%) = 601.468 (90.7331)
Bond  time (%) = 0.775727 (0.117021)
Neigh time (%) = 5.1521 (0.777208)
Comm  time (%) = 20.6757 (3.11898)
Outpt time (%) = 2.10321 (0.317275)
Other time (%) = 32.7232 (4.93638)

Nlocal:    5292.5 ave 5368 max 5137 min
Histogram: 1 0 0 1 0 0 0 1 0 3
Nghost:    7733.5 ave 7992 max 7494 min
Histogram: 1 0 1 1 1 0 0 0 1 1
Neighs:    302373 ave 312375 max 280021 min
Histogram: 1 0 0 0 0 1 0 0 2 2
FullNghs: 604746 ave 623573 max 558941 min
Histogram: 1 0 0 0 0 1 0 1 0 3

Total # of neighbors = 3628478
Ave neighs/atom = 114.265
Ave special neighs/atom = 5.09986
Neighbor list builds = 100
Dangerous builds = 100
velocity all zero linear
WARNING: Use special bonds = 0,1,1 with bond style fene (bond_fene.cpp:189)
Memory usage per processor = 18.891 Mbytes
Step sdpd_kin pTemp 
  541000 1.0300143e+09 1.0076798e+09 
  541100 1.0318892e+09 1.009234e+09 
  541200 1.0275414e+09 1.0050429e+09 
  541300 1.0269126e+09 1.0041432e+09 
  541400 1.0229502e+09 1.0001878e+09 
  541500 1.0318097e+09 1.0091003e+09 
  541600 1.0280062e+09 1.0053703e+09 
  541700 1.0201281e+09 9.9740624e+08 
  541800 1.028537e+09 1.005493e+09 
  541900 1.0241722e+09 1.0011385e+09 
  542000 1.021988e+09 9.9890816e+08 
Loop time of 655.798 on 6 procs for 1000 steps with 31755 atoms

Pair  time (%) = 600.217 (91.5246)
Bond  time (%) = 0.786151 (0.119877)
Neigh time (%) = 5.14543 (0.784607)
Comm  time (%) = 16.0987 (2.45483)
Outpt time (%) = 2.1028 (0.320647)
Other time (%) = 31.4481 (4.7954)

Nlocal:    5292.5 ave 5395 max 5224 min
Histogram: 2 0 0 1 1 1 0 0 0 1
Nghost:    7782.5 ave 7969 max 7600 min
Histogram: 2 1 0 0 0 0 0 0 1 2
Neighs:    302761 ave 309476 max 290436 min
Histogram: 1 0 0 0 1 0 0 1 2 1
FullNghs: 605522 ave 619220 max 579869 min
Histogram: 1 0 0 0 1 0 0 1 2 1

Total # of neighbors = 3633134
Ave neighs/atom = 114.411
Ave special neighs/atom = 5.09986
Neighbor list builds = 100
Dangerous builds = 100
velocity all zero linear
WARNING: Use special bonds = 0,1,1 with bond style fene (bond_fene.cpp:189)
Memory usage per processor = 18.891 Mbytes
Step sdpd_kin pTemp 
  542000 1.021988e+09 9.9890816e+08 
  542100 1.0162333e+09 9.9378762e+08 
  542200  1.02934e+09 1.0072853e+09 
  542300 1.0270221e+09 1.0049545e+09 
  542400 1.0245094e+09 1.0023395e+09 
  542500 1.0271932e+09 1.0051783e+09 
  542600 1.0221816e+09 9.9956738e+08 
  542700 1.0281621e+09 1.0053221e+09 
  542800 1.0193923e+09 9.9699012e+08 
  542900 1.0264115e+09 1.0034677e+09 
  543000 1.0241918e+09 1.0014736e+09 
Loop time of 661.929 on 6 procs for 1000 steps with 31755 atoms

Pair  time (%) = 599.213 (90.5254)
Bond  time (%) = 0.781045 (0.117995)
Neigh time (%) = 5.16694 (0.780588)
Comm  time (%) = 21.9647 (3.31829)
Outpt time (%) = 2.09639 (0.31671)
Other time (%) = 32.7063 (4.94106)

Nlocal:    5292.5 ave 5402 max 5134 min
Histogram: 1 0 0 1 1 0 0 1 0 2
Nghost:    7773.17 ave 7945 max 7592 min
Histogram: 1 0 0 1 0 2 1 0 0 1
Neighs:    301230 ave 311416 max 284309 min
Histogram: 1 0 0 0 1 0 1 1 0 2
FullNghs: 602461 ave 622588 max 569847 min
Histogram: 1 0 0 0 1 0 1 1 0 2

Total # of neighbors = 3614764
Ave neighs/atom = 113.833
Ave special neighs/atom = 5.09986
Neighbor list builds = 100
Dangerous builds = 100
velocity all zero linear
WARNING: Use special bonds = 0,1,1 with bond style fene (bond_fene.cpp:189)
Memory usage per processor = 18.891 Mbytes
Step sdpd_kin pTemp 
  543000 1.0241917e+09 1.0014736e+09 
  543100 1.0248627e+09 1.0028242e+09 
  543200 1.0217572e+09 9.9920815e+08 
  543300 1.0298607e+09 1.0073047e+09 
  543400 1.0259449e+09 1.0033256e+09 
  543500 1.0339815e+09 1.0108243e+09 
  543600 1.0193947e+09 9.9640248e+08 
  543700 1.0321868e+09 1.0089806e+09 
  543800 1.0240371e+09 1.0005519e+09 
  543900 1.0163596e+09 9.9258297e+08 
  544000 1.0341343e+09 1.0106742e+09 
Loop time of 664.368 on 6 procs for 1000 steps with 31755 atoms

Pair  time (%) = 598.307 (90.0566)
Bond  time (%) = 0.78303 (0.117861)
Neigh time (%) = 5.16114 (0.77685)
Comm  time (%) = 23.9978 (3.61213)
Outpt time (%) = 2.10271 (0.316497)
Other time (%) = 34.0161 (5.12008)

Nlocal:    5292.5 ave 5376 max 5204 min
Histogram: 1 1 0 0 1 1 0 0 0 2
Nghost:    7789.17 ave 8034 max 7490 min
Histogram: 1 1 0 0 0 1 1 0 0 2
Neighs:    301818 ave 312251 max 290656 min
Histogram: 1 0 1 0 1 1 0 0 1 1
FullNghs: 603636 ave 625405 max 583332 min
Histogram: 1 0 1 0 2 0 0 0 1 1

Total # of neighbors = 3621814
Ave neighs/atom = 114.055
Ave special neighs/atom = 5.09986
Neighbor list builds = 100
Dangerous builds = 100
velocity all zero linear
WARNING: Use special bonds = 0,1,1 with bond style fene (bond_fene.cpp:189)
Memory usage per processor = 18.891 Mbytes
Step sdpd_kin pTemp 
  544000 1.0341343e+09 1.0106742e+09 
  544100 1.0262089e+09 1.0033385e+09 
  544200 1.0286682e+09 1.0060352e+09 
  544300 1.0224618e+09 1.0000604e+09 
  544400 1.0163866e+09 9.9376269e+08 
  544500 1.0249889e+09 1.0030184e+09 
  544600 1.0177587e+09 9.9594721e+08 
  544700 1.024429e+09 1.0022297e+09 
  544800 1.0215707e+09 9.9986879e+08 
  544900 1.0304366e+09 1.0085129e+09 
  545000 1.0251532e+09 1.0034086e+09 
Loop time of 671.289 on 6 procs for 1000 steps with 31755 atoms

Pair  time (%) = 599.703 (89.3361)
Bond  time (%) = 0.772463 (0.115072)
Neigh time (%) = 5.14409 (0.766301)
Comm  time (%) = 30.6091 (4.55976)
Outpt time (%) = 2.09991 (0.312817)
Other time (%) = 32.9598 (4.90993)

Nlocal:    5292.5 ave 5349 max 5241 min
Histogram: 1 0 0 3 0 0 0 1 0 1
Nghost:    7681.17 ave 7908 max 7482 min
Histogram: 2 0 0 0 1 1 0 1 0 1
Neighs:    302636 ave 309223 max 297181 min
Histogram: 2 0 0 1 1 0 0 0 1 1
FullNghs: 605272 ave 619425 max 595122 min
Histogram: 2 0 1 0 1 0 0 0 1 1

Total # of neighbors = 3631632
Ave neighs/atom = 114.364
Ave special neighs/atom = 5.09986
Neighbor list builds = 100
Dangerous builds = 100
velocity all zero linear
WARNING: Use special bonds = 0,1,1 with bond style fene (bond_fene.cpp:189)
Memory usage per processor = 18.891 Mbytes
Step sdpd_kin pTemp 
  545000 1.0251531e+09 1.0034086e+09 
  545100 1.0185616e+09 9.9668139e+08 
  545200 1.0168038e+09 9.9517071e+08 
  545300 1.0304255e+09 1.0082124e+09 
  545400 1.0248768e+09 1.0022297e+09 
  545500 1.0260906e+09 1.0035278e+09 
  545600 1.0318524e+09 1.0092123e+09 
  545700 1.0232052e+09 1.0014848e+09 
  545800 1.0248194e+09 1.0024814e+09 
  545900 1.023105e+09 1.0008526e+09 
  546000 1.0212592e+09 9.9935028e+08 
Loop time of 659.724 on 6 procs for 1000 steps with 31755 atoms

Pair  time (%) = 600.205 (90.9782)
Bond  time (%) = 0.780628 (0.118327)
Neigh time (%) = 5.15533 (0.781437)
Comm  time (%) = 19.3358 (2.9309)
Outpt time (%) = 2.09747 (0.317932)
Other time (%) = 32.1495 (4.87318)

Nlocal:    5292.5 ave 5399 max 5181 min
Histogram: 2 0 0 0 0 2 0 0 0 2
Nghost:    7733.83 ave 7819 max 7645 min
Histogram: 1 1 0 1 0 0 1 0 0 2
Neighs:    303478 ave 315619 max 292967 min
Histogram: 1 1 1 0 0 1 0 0 0 2
FullNghs: 606956 ave 632190 max 587895 min
Histogram: 2 1 0 0 0 1 0 0 1 1

Total # of neighbors = 3641736
Ave neighs/atom = 114.682
Ave special neighs/atom = 5.09986
Neighbor list builds = 100
Dangerous builds = 100
velocity all zero linear
WARNING: Use special bonds = 0,1,1 with bond style fene (bond_fene.cpp:189)
Memory usage per processor = 18.891 Mbytes
Step sdpd_kin pTemp 
  546000 1.0212591e+09 9.9935028e+08 
  546100 1.0199986e+09  9.97959e+08 
  546200 1.0318884e+09 1.0097803e+09 
  546300 1.0239284e+09 1.0020988e+09 
  546400 1.0341124e+09 1.0121553e+09 
  546500 1.0264115e+09 1.0045929e+09 
  546600 1.0364666e+09 1.0147713e+09 
  546700 1.0159026e+09 9.9389927e+08 
  546800 1.0254302e+09 1.0039473e+09 
  546900 1.0261844e+09 1.0043119e+09 
  547000 1.0214547e+09 1.000314e+09 
Loop time of 665.831 on 6 procs for 1000 steps with 31755 atoms

Pair  time (%) = 601.702 (90.3687)
Bond  time (%) = 0.778023 (0.11685)
Neigh time (%) = 5.17819 (0.777704)
Comm  time (%) = 22.5399 (3.38522)
Outpt time (%) = 2.09523 (0.314679)
Other time (%) = 33.5368 (5.03684)

Nlocal:    5292.5 ave 5395 max 5206 min
Histogram: 2 0 0 1 1 0 0 0 0 2
Nghost:    7771.33 ave 7940 max 7562 min
Histogram: 1 0 1 0 1 0 1 0 1 1
Neighs:    303177 ave 315266 max 295278 min
Histogram: 2 1 1 0 0 0 0 0 1 1
FullNghs: 606353 ave 630891 max 589783 min
Histogram: 2 1 1 0 0 0 0 0 1 1

Total # of neighbors = 3638120
Ave neighs/atom = 114.568
Ave special neighs/atom = 5.09986
Neighbor list builds = 100
Dangerous builds = 100
velocity all zero linear
WARNING: Use special bonds = 0,1,1 with bond style fene (bond_fene.cpp:189)
Memory usage per processor = 18.891 Mbytes
Step sdpd_kin pTemp 
  547000 1.0214544e+09 1.000314e+09 
  547100 1.0102706e+09 9.8918279e+08 
  547200 1.0327599e+09 1.011461e+09 
  547300 1.0182989e+09 9.9716898e+08 
  547400 1.0195626e+09 9.9891667e+08 
  547500 1.0198121e+09 9.988008e+08 
  547600 1.0271119e+09 1.0056533e+09 
  547700 1.0141973e+09 9.929934e+08 
  547800 1.0256251e+09 1.0040956e+09 
  547900 1.0217812e+09 1.0006247e+09 
  548000 1.0255999e+09 1.0042196e+09 
Loop time of 678.902 on 6 procs for 1000 steps with 31755 atoms

Pair  time (%) = 603.804 (88.9384)
Bond  time (%) = 0.772892 (0.113844)
Neigh time (%) = 5.14631 (0.758035)
Comm  time (%) = 33.1998 (4.89023)
Outpt time (%) = 2.10374 (0.309875)
Other time (%) = 33.8748 (4.98965)

Nlocal:    5292.5 ave 5531 max 5085 min
Histogram: 2 0 0 1 0 0 1 1 0 1
Nghost:    7766.83 ave 7886 max 7632 min
Histogram: 1 1 0 0 1 0 1 0 0 2
Neighs:    303472 ave 326950 max 283316 min
Histogram: 2 0 0 1 0 0 1 1 0 1
FullNghs: 606944 ave 653403 max 566156 min
Histogram: 2 0 0 1 0 0 2 0 0 1

Total # of neighbors = 3641666
Ave neighs/atom = 114.68
Ave special neighs/atom = 5.09986
Neighbor list builds = 100
Dangerous builds = 100
velocity all zero linear
WARNING: Use special bonds = 0,1,1 with bond style fene (bond_fene.cpp:189)
Memory usage per processor = 18.891 Mbytes
Step sdpd_kin pTemp 
  548000 1.0255999e+09 1.0042196e+09 
  548100 1.0300545e+09 1.0084073e+09 
  548200 1.0136066e+09 9.921355e+08 
  548300 1.0290692e+09 1.0081793e+09 
  548400 1.0235597e+09 1.0029189e+09 
  548500 1.0254502e+09 1.0041873e+09 
  548600 1.0235053e+09 1.0022478e+09 
  548700 1.0241926e+09 1.0032802e+09 
  548800 1.0266527e+09 1.0056945e+09 
  548900 1.0221246e+09 1.0010705e+09 
  549000  1.02208e+09 1.0007654e+09 
Loop time of 678.235 on 6 procs for 1000 steps with 31755 atoms

Pair  time (%) = 605.079 (89.2138)
Bond  time (%) = 0.769111 (0.113399)
Neigh time (%) = 5.13724 (0.757443)
Comm  time (%) = 31.6183 (4.66185)
Outpt time (%) = 2.0937 (0.308698)
Other time (%) = 33.5377 (4.94485)

Nlocal:    5292.5 ave 5332 max 5206 min
Histogram: 1 0 0 0 0 1 0 1 1 2
Nghost:    7710.17 ave 7850 max 7596 min
Histogram: 2 0 0 0 1 0 2 0 0 1
Neighs:    304358 ave 314361 max 293056 min
Histogram: 1 0 1 0 1 1 0 0 1 1
FullNghs: 608717 ave 628822 max 588596 min
Histogram: 1 0 1 0 1 1 0 1 0 1

Total # of neighbors = 3652300
Ave neighs/atom = 115.015
Ave special neighs/atom = 5.09986
Neighbor list builds = 100
Dangerous builds = 100
velocity all zero linear
WARNING: Use special bonds = 0,1,1 with bond style fene (bond_fene.cpp:189)
Memory usage per processor = 18.891 Mbytes
Step sdpd_kin pTemp 
  549000  1.02208e+09 1.0007654e+09 
  549100 1.0288433e+09 1.0078539e+09 
  549200 1.0222108e+09 1.0008714e+09 
  549300 1.0265974e+09 1.005355e+09 
  549400 1.0296803e+09 1.0085228e+09 
  549500 1.0177921e+09 9.9646851e+08 
  549600 1.0234771e+09 1.0025496e+09 
  549700 1.0280703e+09 1.0074375e+09 
  549800 1.028632e+09 1.0080476e+09 
  549900 1.0247066e+09 1.0038047e+09 
  550000 1.0239741e+09 1.0032475e+09 
Loop time of 687.056 on 6 procs for 1000 steps with 31755 atoms

Pair  time (%) = 604.732 (88.0178)
Bond  time (%) = 0.77986 (0.113507)
Neigh time (%) = 5.13817 (0.747853)
Comm  time (%) = 41.6583 (6.06331)
Outpt time (%) = 2.11103 (0.307257)
Other time (%) = 32.6368 (4.75023)

Nlocal:    5292.5 ave 5410 max 5215 min
Histogram: 2 0 1 1 0 0 0 1 0 1
Nghost:    7812.5 ave 7942 max 7623 min
Histogram: 1 0 1 0 0 0 1 1 0 2
Neighs:    302666 ave 316700 max 291283 min
Histogram: 2 0 0 2 0 0 0 0 0 2
FullNghs: 605333 ave 633060 max 583824 min
Histogram: 2 0 1 1 0 0 0 0 1 1

Total # of neighbors = 3631998
Ave neighs/atom = 114.376
Ave special neighs/atom = 5.09986
Neighbor list builds = 100
Dangerous builds = 99
velocity all zero linear
WARNING: Use special bonds = 0,1,1 with bond style fene (bond_fene.cpp:189)
Memory usage per processor = 18.1281 Mbytes
Step sdpd_kin pTemp 
  550000 1.0239741e+09 1.0032475e+09 
  550100 1.0259823e+09 1.0052668e+09 
  550200 1.0229935e+09 1.0021736e+09 
  550300 1.0223713e+09 1.0022545e+09 
  550400 1.0231006e+09 1.0026379e+09 
  550500 1.022118e+09 1.0017172e+09 
  550600 1.0159272e+09 9.9567241e+08 
  550700 1.0224577e+09 1.0019659e+09 
  550800 1.0269304e+09 1.0065876e+09 
  550900 1.0256723e+09 1.0048613e+09 
  551000 1.0233774e+09 1.0019583e+09 
Loop time of 675.162 on 6 procs for 1000 steps with 31755 atoms

Pair  time (%) = 604.55 (89.5416)
Bond  time (%) = 0.776334 (0.114985)
Neigh time (%) = 5.13609 (0.76072)
Comm  time (%) = 30.1361 (4.46354)
Outpt time (%) = 2.08695 (0.309103)
Other time (%) = 32.4756 (4.81005)

Nlocal:    5292.5 ave 5460 max 5196 min
Histogram: 2 0 1 0 2 0 0 0 0 1
Nghost:    7821.5 ave 8029 max 7645 min
Histogram: 1 0 2 1 0 0 0 0 0 2
Neighs:    303301 ave 317777 max 292544 min
Histogram: 2 0 1 0 0 0 2 0 0 1
FullNghs: 606603 ave 634518 max 584742 min
Histogram: 2 0 1 0 0 0 1 1 0 1

Total # of neighbors = 3639616
Ave neighs/atom = 114.616
Ave special neighs/atom = 5.09986
Neighbor list builds = 100
Dangerous builds = 100
velocity all zero linear
WARNING: Use special bonds = 0,1,1 with bond style fene (bond_fene.cpp:189)
Memory usage per processor = 18.1281 Mbytes
Step sdpd_kin pTemp 
  551000 1.0233774e+09 1.0019583e+09 
  551100 1.0263337e+09 1.0048871e+09 
  551200 1.0290119e+09 1.0080973e+09 
  551300 1.0216849e+09 1.0005514e+09 
  551400 1.0247102e+09 1.0036677e+09 
  551500 1.0160494e+09 9.9518269e+08 
  551600 1.0170368e+09 9.9606682e+08 
  551700 1.0244083e+09 1.0035184e+09 
  551800 1.0145206e+09 9.9347977e+08 
  551900 1.0264821e+09 1.0054565e+09 
  552000 1.0212784e+09 1.0000883e+09 
Loop time of 669.952 on 6 procs for 1000 steps with 31755 atoms

Pair  time (%) = 602.047 (89.8642)
Bond  time (%) = 0.777277 (0.11602)
Neigh time (%) = 5.14207 (0.767528)
Comm  time (%) = 27.0151 (4.0324)
Outpt time (%) = 2.08998 (0.311959)
Other time (%) = 32.8808 (4.90793)

Nlocal:    5292.5 ave 5362 max 5181 min
Histogram: 1 0 0 0 0 2 1 0 0 2
Nghost:    7817.33 ave 7965 max 7588 min
Histogram: 1 0 0 1 0 0 1 1 1 1
Neighs:    302621 ave 310801 max 289540 min
Histogram: 1 0 0 0 0 2 0 1 1 1
FullNghs: 605242 ave 621799 max 578005 min
Histogram: 1 0 0 0 0 1 2 0 1 1

Total # of neighbors = 3631450
Ave neighs/atom = 114.358
Ave special neighs/atom = 5.09986
Neighbor list builds = 100
Dangerous builds = 100
velocity all zero linear
WARNING: Use special bonds = 0,1,1 with bond style fene (bond_fene.cpp:189)
Memory usage per processor = 18.891 Mbytes
Step sdpd_kin pTemp 
  552000 1.0212784e+09 1.0000883e+09 
  552100 1.0185489e+09 9.9706964e+08 
  552200 1.023623e+09 1.0018235e+09 
  552300 1.0244039e+09 1.0023789e+09 
  552400 1.0224673e+09 1.0003916e+09 
  552500 1.0263576e+09 1.0045825e+09 
  552600 1.0256391e+09 1.0042539e+09 
  552700 1.0211202e+09 9.9990022e+08 
  552800 1.0239876e+09 1.002997e+09 
  552900 1.0258259e+09 1.0047442e+09 
  553000 1.0162002e+09 9.9525159e+08 
Loop time of 675.422 on 6 procs for 1000 steps with 31755 atoms

Pair  time (%) = 601.464 (89.0501)
Bond  time (%) = 0.775378 (0.114799)
Neigh time (%) = 5.14633 (0.761944)
Comm  time (%) = 31.7117 (4.6951)
Outpt time (%) = 2.0842 (0.308577)
Other time (%) = 34.2404 (5.06949)

Nlocal:    5292.5 ave 5439 max 5149 min
Histogram: 1 0 1 0 1 1 0 1 0 1
Nghost:    7830.17 ave 7918 max 7696 min
Histogram: 1 0 1 0 0 1 0 0 1 2
Neighs:    301751 ave 316269 max 288436 min
Histogram: 1 1 0 0 1 1 0 0 1 1
FullNghs: 603503 ave 633889 max 578198 min
Histogram: 2 0 0 1 1 0 0 0 1 1

Total # of neighbors = 3621016
Ave neighs/atom = 114.03
Ave special neighs/atom = 5.09986
Neighbor list builds = 100
Dangerous builds = 100
velocity all zero linear
WARNING: Use special bonds = 0,1,1 with bond style fene (bond_fene.cpp:189)
Memory usage per processor = 18.891 Mbytes
Step sdpd_kin pTemp 
  553000 1.0162001e+09 9.9525159e+08 
  553100 1.0232781e+09 1.002369e+09 
  553200 1.0206364e+09 9.9968628e+08 
  553300 1.0241683e+09 1.0031306e+09 
  553400 1.0230022e+09 1.0021015e+09 
  553500 1.0317444e+09 1.0108291e+09 
  553600 1.0290234e+09 1.0079412e+09 
  553700 1.019748e+09 9.9896307e+08 
  553800 1.0322531e+09 1.0114281e+09 
  553900 1.0290292e+09 1.0080155e+09 
  554000 1.0227535e+09 1.0016324e+09 
Loop time of 676.408 on 6 procs for 1000 steps with 31755 atoms

Pair  time (%) = 600.541 (88.7839)
Bond  time (%) = 0.781635 (0.115557)
Neigh time (%) = 5.13929 (0.759792)
Comm  time (%) = 34.1569 (5.04976)
Outpt time (%) = 2.10066 (0.310562)
Other time (%) = 33.6883 (4.98047)

Nlocal:    5292.5 ave 5437 max 5134 min
Histogram: 2 0 0 0 0 1 1 0 1 1
Nghost:    7815.67 ave 8092 max 7632 min
Histogram: 1 1 1 0 1 1 0 0 0 1
Neighs:    301492 ave 314509 max 285333 min
Histogram: 2 0 0 0 0 1 0 1 1 1
FullNghs: 602983 ave 628751 max 569566 min
Histogram: 1 1 0 0 0 1 0 0 2 1

Total # of neighbors = 3617900
Ave neighs/atom = 113.932
Ave special neighs/atom = 5.09986
Neighbor list builds = 100
Dangerous builds = 100
velocity all zero linear
WARNING: Use special bonds = 0,1,1 with bond style fene (bond_fene.cpp:189)
Memory usage per processor = 18.891 Mbytes
Step sdpd_kin pTemp 
  554000 1.0227535e+09 1.0016324e+09 
  554100 1.0186577e+09 9.9753612e+08 
  554200 1.0240959e+09 1.0028167e+09 
  554300  1.02388e+09 1.0026496e+09 
  554400 1.0258486e+09 1.0052858e+09 
  554500 1.0222313e+09 1.0011194e+09 
  554600 1.0268379e+09 1.0054169e+09 
  554700 1.0398196e+09 1.0186434e+09 
  554800 1.0244929e+09 1.0038551e+09 
  554900 1.0276185e+09 1.0069841e+09 
  555000 1.0269455e+09 1.0060252e+09 
Loop time of 676.989 on 6 procs for 1000 steps with 31755 atoms

Pair  time (%) = 601.336 (88.825)
Bond  time (%) = 0.775762 (0.11459)
Neigh time (%) = 5.14697 (0.760273)
Comm  time (%) = 34.8347 (5.14553)
Outpt time (%) = 2.0962 (0.309636)
Other time (%) = 32.8 (4.84497)

Nlocal:    5292.5 ave 5411 max 5094 min
Histogram: 1 0 1 0 0 0 0 1 1 2
Nghost:    7877.5 ave 7987 max 7740 min
Histogram: 1 0 0 2 0 0 0 0 2 1
Neighs:    301311 ave 312982 max 281513 min
Histogram: 2 0 0 0 0 0 0 0 1 3
FullNghs: 602622 ave 623740 max 563447 min
Histogram: 2 0 0 0 0 0 0 0 0 4

Total # of neighbors = 3615734
Ave neighs/atom = 113.863
Ave special neighs/atom = 5.09986
Neighbor list builds = 100
Dangerous builds = 100
velocity all zero linear
WARNING: Use special bonds = 0,1,1 with bond style fene (bond_fene.cpp:189)
Memory usage per processor = 18.891 Mbytes
Step sdpd_kin pTemp 
  555000 1.0269455e+09 1.0060252e+09 
  555100 1.0251498e+09 1.0038743e+09 
  555200 1.0271104e+09 1.0059225e+09 
  555300 1.0107695e+09 9.889541e+08 
  555400 1.0258726e+09 1.0039231e+09 
  555500 1.0187235e+09 9.9609318e+08 
  555600 1.0228983e+09 1.0006115e+09 
  555700 1.0307696e+09 1.0082013e+09 
  555800 1.0361348e+09 1.0131482e+09 
  555900 1.0258478e+09 1.0028064e+09 
  556000 1.0323029e+09 1.0085677e+09 
Loop time of 677.708 on 6 procs for 1000 steps with 31755 atoms

Pair  time (%) = 600.02 (88.5367)
Bond  time (%) = 0.790518 (0.116646)
Neigh time (%) = 5.14351 (0.758957)
Comm  time (%) = 36.5109 (5.38741)
Outpt time (%) = 2.0791 (0.306785)
Other time (%) = 33.1639 (4.89355)

Nlocal:    5292.5 ave 5468 max 5035 min
Histogram: 1 0 0 1 0 1 0 0 2 1
Nghost:    7724.83 ave 7884 max 7519 min
Histogram: 1 0 1 0 0 1 0 1 1 1
Neighs:    301361 ave 320984 max 274461 min
Histogram: 1 0 0 1 1 0 0 1 1 1
FullNghs: 602722 ave 640845 max 552139 min
Histogram: 1 0 0 1 1 0 0 1 0 2

Total # of neighbors = 3616332
Ave neighs/atom = 113.882
Ave special neighs/atom = 5.09986
Neighbor list builds = 100
Dangerous builds = 100
velocity all zero linear
WARNING: Use special bonds = 0,1,1 with bond style fene (bond_fene.cpp:189)
Memory usage per processor = 18.891 Mbytes
Step sdpd_kin pTemp 
  556000 1.0323029e+09 1.0085677e+09 
  556100 1.0330402e+09 1.0093831e+09 
  556200 1.0324501e+09 1.0083656e+09 
  556300 1.0331375e+09 1.009035e+09 
  556400 1.0298891e+09 1.0056172e+09 
  556500 1.0318291e+09 1.0073632e+09 
  556600 1.0196984e+09 9.9474428e+08 
  556700 1.028808e+09 1.0040036e+09 
  556800 1.0302504e+09 1.0059565e+09 
  556900 1.0198434e+09 9.9578274e+08 
  557000 1.0234614e+09 9.9916773e+08 
Loop time of 686.654 on 6 procs for 1000 steps with 31755 atoms

Pair  time (%) = 602.011 (87.6731)
Bond  time (%) = 0.771985 (0.112427)
Neigh time (%) = 5.16496 (0.752192)
Comm  time (%) = 43.8084 (6.37998)
Outpt time (%) = 2.09183 (0.304642)
Other time (%) = 32.8061 (4.77768)

Nlocal:    5292.5 ave 5589 max 5091 min
Histogram: 1 0 2 1 0 1 0 0 0 1
Nghost:    7815.83 ave 7941 max 7733 min
Histogram: 1 0 1 3 0 0 0 0 0 1
Neighs:    302389 ave 334689 max 279621 min
Histogram: 1 0 1 1 2 0 0 0 0 1
FullNghs: 604778 ave 669005 max 560770 min
Histogram: 1 0 2 0 2 0 0 0 0 1

Total # of neighbors = 3628670
Ave neighs/atom = 114.271
Ave special neighs/atom = 5.09986
Neighbor list builds = 100
Dangerous builds = 100
velocity all zero linear
WARNING: Use special bonds = 0,1,1 with bond style fene (bond_fene.cpp:189)
Memory usage per processor = 18.891 Mbytes
Step sdpd_kin pTemp 
  557000 1.0234614e+09 9.9916773e+08 
  557100 1.0245314e+09 1.0000202e+09 
  557200 1.024055e+09 9.995805e+08 
  557300 1.0215728e+09 9.9627394e+08 
  557400 1.0302365e+09 1.0051446e+09 
  557500 1.0272802e+09 1.0016629e+09 
  557600 1.0249182e+09 9.9971171e+08 
  557700 1.0286107e+09 1.0038517e+09 
  557800 1.021305e+09 9.9661288e+08 
  557900 1.0343686e+09 1.0090381e+09 
  558000 1.0310369e+09 1.0059174e+09 
Loop time of 698.45 on 6 procs for 1000 steps with 31755 atoms

Pair  time (%) = 603.69 (86.4327)
Bond  time (%) = 0.774035 (0.110822)
Neigh time (%) = 5.13842 (0.735689)
Comm  time (%) = 54.7105 (7.83313)
Outpt time (%) = 2.0878 (0.298919)
Other time (%) = 32.0498 (4.5887)

Nlocal:    5292.5 ave 5502 max 5005 min
Histogram: 1 0 0 0 1 1 1 1 0 1
Nghost:    7713 ave 7887 max 7561 min
Histogram: 2 0 1 0 0 0 0 2 0 1
Neighs:    303153 ave 327654 max 271325 min
Histogram: 1 0 0 0 1 1 1 1 0 1
FullNghs: 606307 ave 654962 max 543212 min
Histogram: 1 0 0 0 1 1 1 1 0 1

Total # of neighbors = 3637840
Ave neighs/atom = 114.56
Ave special neighs/atom = 5.09986
Neighbor list builds = 100
Dangerous builds = 100
velocity all zero linear
WARNING: Use special bonds = 0,1,1 with bond style fene (bond_fene.cpp:189)
Memory usage per processor = 18.891 Mbytes
Step sdpd_kin pTemp 
  558000 1.0310369e+09 1.0059174e+09 
  558100 1.0355477e+09 1.0102095e+09 
  558200 1.029895e+09 1.0044627e+09 
  558300 1.0241748e+09 9.9923936e+08 
  558400 1.0280151e+09 1.0026879e+09 
  558500 1.0291885e+09 1.0038157e+09 
  558600 1.0263025e+09 1.0015478e+09 
  558700 1.0253061e+09 1.0001593e+09 
  558800 1.0181737e+09 9.9302354e+08 
  558900 1.0385658e+09 1.013468e+09 
  559000 1.0221856e+09 9.9656612e+08 
Loop time of 690.348 on 6 procs for 1000 steps with 31755 atoms

Pair  time (%) = 604.248 (87.528)
Bond  time (%) = 0.769969 (0.111533)
Neigh time (%) = 5.14419 (0.745159)
Comm  time (%) = 44.3775 (6.42828)
Outpt time (%) = 2.08809 (0.302469)
Other time (%) = 33.7202 (4.88452)

Nlocal:    5292.5 ave 5420 max 5109 min
Histogram: 1 0 0 0 1 1 1 0 0 2
Nghost:    7656.5 ave 7785 max 7599 min
Histogram: 3 0 0 1 1 0 0 0 0 1
Neighs:    301310 ave 316593 max 278028 min
Histogram: 1 0 0 0 0 2 0 2 0 1
FullNghs: 602621 ave 633512 max 554769 min
Histogram: 1 0 0 0 0 2 0 1 1 1

Total # of neighbors = 3615726
Ave neighs/atom = 113.863
Ave special neighs/atom = 5.09986
Neighbor list builds = 100
Dangerous builds = 100
velocity all zero linear
WARNING: Use special bonds = 0,1,1 with bond style fene (bond_fene.cpp:189)
Memory usage per processor = 18.891 Mbytes
Step sdpd_kin pTemp 
  559000 1.0221856e+09 9.9656612e+08 
  559100 1.0189755e+09 9.9363943e+08 
  559200 1.0299774e+09 1.0047563e+09 
  559300 1.0280267e+09 1.0033311e+09 
  559400 1.0386114e+09 1.0139019e+09 
  559500 1.0263091e+09 1.0015616e+09 
  559600 1.028205e+09 1.0032049e+09 
  559700 1.0337414e+09 1.0089809e+09 
  559800 1.0317705e+09 1.0066837e+09 
  559900 1.0265334e+09 1.001417e+09 
  560000 1.025479e+09 1.0000878e+09 
Loop time of 671.705 on 6 procs for 1000 steps with 31755 atoms

Pair  time (%) = 600.196 (89.3541)
Bond  time (%) = 0.778275 (0.115866)
Neigh time (%) = 5.1411 (0.765381)
Comm  time (%) = 30.9102 (4.60175)
Outpt time (%) = 2.10456 (0.313316)
Other time (%) = 32.5748 (4.84956)

Nlocal:    5292.5 ave 5377 max 5093 min
Histogram: 1 0 0 0 0 0 2 0 0 3
Nghost:    7812.33 ave 7889 max 7701 min
Histogram: 1 0 1 0 0 0 1 1 1 1
Neighs:    302427 ave 312594 max 281494 min
Histogram: 1 0 0 0 0 0 2 0 1 2
FullNghs: 604854 ave 624004 max 564200 min
Histogram: 1 0 0 0 0 0 2 0 1 2

Total # of neighbors = 3629126
Ave neighs/atom = 114.285
Ave special neighs/atom = 5.09986
Neighbor list builds = 100
Dangerous builds = 99
velocity all zero linear
WARNING: Use special bonds = 0,1,1 with bond style fene (bond_fene.cpp:189)
Memory usage per processor = 18.891 Mbytes
Step sdpd_kin pTemp 
  560000 1.025479e+09 1.0000878e+09 
  560100 1.0287477e+09 1.0039522e+09 
  560200 1.0311377e+09 1.006221e+09 
  560300 1.0254967e+09 1.0008043e+09 
  560400 1.0319441e+09 1.0070281e+09 
  560500 1.033664e+09 1.0096506e+09 
  560600 1.0243397e+09 1.0001316e+09 
  560700 1.0270259e+09 1.0034062e+09 
  560800 1.0249311e+09 1.0011988e+09 
  560900 1.0250592e+09 1.0012116e+09 
  561000 1.0251508e+09 1.0017384e+09 
Loop time of 672.304 on 6 procs for 1000 steps with 31755 atoms

Pair  time (%) = 603.061 (89.7006)
Bond  time (%) = 0.773951 (0.115119)
Neigh time (%) = 5.16041 (0.767571)
Comm  time (%) = 27.5753 (4.10161)
Outpt time (%) = 2.09039 (0.31093)
Other time (%) = 33.643 (5.00414)

Nlocal:    5292.5 ave 5366 max 5028 min
Histogram: 1 0 0 0 0 0 0 0 1 4
Nghost:    7795.83 ave 7938 max 7645 min
Histogram: 1 0 1 0 1 0 1 0 1 1
Neighs:    302428 ave 311174 max 276506 min
Histogram: 1 0 0 0 0 0 0 1 2 2
FullNghs: 604857 ave 621735 max 554616 min
Histogram: 1 0 0 0 0 0 0 1 2 2

Total # of neighbors = 3629142
Ave neighs/atom = 114.286
Ave special neighs/atom = 5.09986
Neighbor list builds = 100
Dangerous builds = 100
velocity all zero linear
WARNING: Use special bonds = 0,1,1 with bond style fene (bond_fene.cpp:189)
Memory usage per processor = 18.891 Mbytes
Step sdpd_kin pTemp 
  561000 1.0251507e+09 1.0017384e+09 
  561100 1.0316945e+09 1.0089268e+09 
  561200 1.0233584e+09 1.000599e+09 
  561300 1.0288409e+09 1.0063157e+09 
  561400 1.0291709e+09 1.0063753e+09 
  561500 1.0272507e+09 1.0040505e+09 
  561600 1.0283964e+09 1.0051143e+09 
  561700 1.0282057e+09 1.004755e+09 
  561800 1.0192954e+09 9.9615067e+08 
  561900 1.0242128e+09 1.0008056e+09 
  562000 1.0214108e+09 9.9757204e+08 
Loop time of 670.59 on 6 procs for 1000 steps with 31755 atoms

Pair  time (%) = 603.613 (90.0121)
Bond  time (%) = 0.781168 (0.11649)
Neigh time (%) = 5.14561 (0.767326)
Comm  time (%) = 25.3465 (3.77973)
Outpt time (%) = 2.08718 (0.311245)
Other time (%) = 33.6172 (5.01307)

Nlocal:    5292.5 ave 5388 max 5071 min
Histogram: 1 0 0 0 0 0 1 1 1 2
Nghost:    7747.83 ave 7927 max 7650 min
Histogram: 1 0 3 1 0 0 0 0 0 1
Neighs:    303662 ave 311764 max 281022 min
Histogram: 1 0 0 0 0 0 1 0 1 3
FullNghs: 607323 ave 625207 max 561855 min
Histogram: 1 0 0 0 0 0 1 0 1 3

Total # of neighbors = 3643940
Ave neighs/atom = 114.752
Ave special neighs/atom = 5.09986
Neighbor list builds = 100
Dangerous builds = 100
velocity all zero linear
WARNING: Use special bonds = 0,1,1 with bond style fene (bond_fene.cpp:189)
Memory usage per processor = 18.891 Mbytes
Step sdpd_kin pTemp 
  562000 1.0214106e+09 9.9757204e+08 
  562100 1.0266342e+09 1.0027063e+09 
  562200 1.0271255e+09 1.0034135e+09 
  562300 1.0188382e+09 9.9554024e+08 
  562400 1.0275211e+09 1.0045195e+09 
  562500 1.024272e+09 1.0012599e+09 
  562600 1.0225254e+09 9.9948047e+08 
  562700 1.0228623e+09 9.9988227e+08 
  562800 1.0294709e+09 1.0059621e+09 
  562900 1.0351465e+09 1.0113809e+09 
  563000 1.0285843e+09 1.0049378e+09 
Loop time of 668.298 on 6 procs for 1000 steps with 31755 atoms

Pair  time (%) = 602.779 (90.1961)
Bond  time (%) = 0.787851 (0.117889)
Neigh time (%) = 5.14249 (0.76949)
Comm  time (%) = 24.7002 (3.69598)
Outpt time (%) = 2.08039 (0.311297)
Other time (%) = 32.8084 (4.90924)

Nlocal:    5292.5 ave 5389 max 5112 min
Histogram: 1 0 1 0 0 0 0 0 2 2
Nghost:    7624 ave 7776 max 7494 min
Histogram: 3 0 0 0 0 0 0 0 2 1
Neighs:    303254 ave 316262 max 288722 min
Histogram: 1 1 0 0 1 0 0 1 0 2
FullNghs: 606507 ave 632656 max 577972 min
Histogram: 2 0 0 0 1 0 0 1 1 1

Total # of neighbors = 3639044
Ave neighs/atom = 114.598
Ave special neighs/atom = 5.09986
Neighbor list builds = 100
Dangerous builds = 100
velocity all zero linear
WARNING: Use special bonds = 0,1,1 with bond style fene (bond_fene.cpp:189)
Memory usage per processor = 18.891 Mbytes
Step sdpd_kin pTemp 
  563000 1.0285843e+09 1.0049378e+09 
  563100 1.0178205e+09 9.9408741e+08 
  563200 1.0298281e+09 1.0062715e+09 
  563300 1.0237017e+09 9.9988086e+08 
  563400 1.0201836e+09 9.964132e+08 
  563500 1.0356657e+09 1.0118124e+09 
  563600 1.0299813e+09 1.0056222e+09 
  563700 1.0234232e+09 9.986975e+08 
  563800 1.0318665e+09 1.0076117e+09 
  563900 1.0326199e+09 1.0085603e+09 
  564000 1.0305979e+09 1.0065974e+09 
Loop time of 675.044 on 6 procs for 1000 steps with 31755 atoms

Pair  time (%) = 603.991 (89.4742)
Bond  time (%) = 0.78311 (0.116009)
Neigh time (%) = 5.15987 (0.764374)
Comm  time (%) = 30.3924 (4.50229)
Outpt time (%) = 2.07856 (0.307914)
Other time (%) = 32.6395 (4.83517)

Nlocal:    5292.5 ave 5488 max 5103 min
Histogram: 1 0 1 0 1 0 2 0 0 1
Nghost:    7734.83 ave 7991 max 7500 min
Histogram: 2 1 0 0 0 0 0 1 1 1
Neighs:    303648 ave 315309 max 286729 min
Histogram: 1 1 0 0 0 0 1 0 1 2
FullNghs: 607296 ave 633169 max 575609 min
Histogram: 1 1 0 0 0 1 0 0 2 1

Total # of neighbors = 3643774
Ave neighs/atom = 114.746
Ave special neighs/atom = 5.09986
Neighbor list builds = 100
Dangerous builds = 100
velocity all zero linear
WARNING: Use special bonds = 0,1,1 with bond style fene (bond_fene.cpp:189)
Memory usage per processor = 18.891 Mbytes
Step sdpd_kin pTemp 
  564000 1.0305978e+09 1.0065974e+09 
  564100 1.0317564e+09 1.0079581e+09 
  564200 1.0238829e+09 1.0004224e+09 
  564300 1.0239909e+09 1.0008968e+09 
  564400 1.0260974e+09 1.0030525e+09 
  564500 1.0232595e+09 1.0002716e+09 
  564600 1.0409815e+09 1.0180331e+09 
  564700 1.0287056e+09 1.0057328e+09 
  564800 1.0290731e+09 1.0059455e+09 
  564900 1.0184455e+09 9.9492823e+08 
  565000 1.0271038e+09 1.0034834e+09 
Loop time of 666.397 on 6 procs for 1000 steps with 31755 atoms

Pair  time (%) = 606.438 (91.0024)
Bond  time (%) = 0.795937 (0.119439)
Neigh time (%) = 5.17873 (0.777123)
Comm  time (%) = 18.4135 (2.76315)
Outpt time (%) = 2.08775 (0.31329)
Other time (%) = 33.4837 (5.02458)

Nlocal:    5292.5 ave 5391 max 5139 min
Histogram: 1 0 0 0 0 2 1 0 1 1
Nghost:    7809 ave 8120 max 7521 min
Histogram: 1 0 2 0 0 1 0 0 1 1
Neighs:    302568 ave 310763 max 293354 min
Histogram: 1 1 0 0 0 0 2 1 0 1
FullNghs: 605136 ave 621660 max 586067 min
Histogram: 2 0 0 0 0 0 2 0 1 1

Total # of neighbors = 3630814
Ave neighs/atom = 114.338
Ave special neighs/atom = 5.09986
Neighbor list builds = 100
Dangerous builds = 100
velocity all zero linear
WARNING: Use special bonds = 0,1,1 with bond style fene (bond_fene.cpp:189)
Memory usage per processor = 18.891 Mbytes
Step sdpd_kin pTemp 
  565000 1.0271038e+09 1.0034834e+09 
  565100 1.0239396e+09 1.0005615e+09 
  565200 1.0260767e+09 1.0023004e+09 
  565300 1.0280018e+09 1.0046633e+09 
  565400 1.0225779e+09 9.9896421e+08 
  565500 1.0230271e+09  9.99167e+08 
  565600 1.026504e+09 1.0031263e+09 
  565700 1.0211995e+09 9.978834e+08 
  565800 1.020513e+09 9.9690898e+08 
  565900 1.026407e+09 1.0028924e+09 
  566000 1.0230028e+09 9.9991088e+08 
Loop time of 669.521 on 6 procs for 1000 steps with 31755 atoms

Pair  time (%) = 601.992 (89.9139)
Bond  time (%) = 0.779474 (0.116423)
Neigh time (%) = 5.16157 (0.770935)
Comm  time (%) = 25.0433 (3.74048)
Outpt time (%) = 2.09951 (0.313583)
Other time (%) = 34.4449 (5.14471)

Nlocal:    5292.5 ave 5404 max 5209 min
Histogram: 3 0 0 0 1 0 0 0 0 2
Nghost:    7794.67 ave 8204 max 7561 min
Histogram: 2 0 2 0 0 0 1 0 0 1
Neighs:    301584 ave 313148 max 290591 min
Histogram: 2 0 0 1 0 0 1 0 1 1
FullNghs: 603168 ave 625483 max 581957 min
Histogram: 2 0 0 0 1 1 0 0 0 2

Total # of neighbors = 3619010
Ave neighs/atom = 113.967
Ave special neighs/atom = 5.09986
Neighbor list builds = 100
Dangerous builds = 100
velocity all zero linear
WARNING: Use special bonds = 0,1,1 with bond style fene (bond_fene.cpp:189)
Memory usage per processor = 18.891 Mbytes
Step sdpd_kin pTemp 
  566000 1.0230028e+09 9.9991088e+08 
  566100 1.0351668e+09 1.0121353e+09 
  566200 1.0184597e+09 9.9534635e+08 
  566300 1.0312121e+09 1.0087761e+09 
  566400 1.0313049e+09 1.0082675e+09 
  566500 1.0222582e+09 9.9883989e+08 
  566600 1.0268634e+09 1.0036093e+09 
  566700 1.0227861e+09 9.9922923e+08 
  566800 1.0336792e+09  1.00991e+09 
  566900 1.0191568e+09 9.9599219e+08 
  567000 1.0241906e+09 1.0009485e+09 
Loop time of 673.857 on 6 procs for 1000 steps with 31755 atoms

Pair  time (%) = 602.325 (89.3846)
Bond  time (%) = 0.776462 (0.115227)
Neigh time (%) = 5.14043 (0.762836)
Comm  time (%) = 30.4095 (4.51275)
Outpt time (%) = 2.09967 (0.31159)
Other time (%) = 33.1063 (4.91295)

Nlocal:    5292.5 ave 5449 max 5131 min
Histogram: 1 0 0 1 1 1 0 1 0 1
Nghost:    7655.17 ave 7982 max 7431 min
Histogram: 2 0 1 0 1 0 1 0 0 1
Neighs:    302922 ave 323214 max 290308 min
Histogram: 1 1 1 0 1 1 0 0 0 1
FullNghs: 605845 ave 644203 max 582960 min
Histogram: 2 1 0 0 1 1 0 0 0 1

Total # of neighbors = 3635068
Ave neighs/atom = 114.472
Ave special neighs/atom = 5.09986
Neighbor list builds = 100
Dangerous builds = 100
velocity all zero linear
WARNING: Use special bonds = 0,1,1 with bond style fene (bond_fene.cpp:189)
Memory usage per processor = 18.891 Mbytes
Step sdpd_kin pTemp 
  567000 1.0241906e+09 1.0009485e+09 
  567100 1.0315723e+09 1.0087278e+09 
  567200 1.0233337e+09 1.0003498e+09 
  567300 1.0296789e+09 1.0063141e+09 
  567400 1.0287938e+09 1.0054236e+09 
  567500 1.0306971e+09 1.0074931e+09 
  567600 1.0286215e+09 1.005933e+09 
  567700 1.0316799e+09 1.0088625e+09 
  567800 1.0290401e+09 1.0062369e+09 
  567900 1.0331333e+09 1.0105737e+09 
  568000 1.0275577e+09 1.0045717e+09 
Loop time of 679.104 on 6 procs for 1000 steps with 31755 atoms

Pair  time (%) = 603.591 (88.8806)
Bond  time (%) = 0.772994 (0.113826)
Neigh time (%) = 5.163 (0.760267)
Comm  time (%) = 34.0197 (5.0095)
Outpt time (%) = 2.10416 (0.309844)
Other time (%) = 33.4525 (4.92598)

Nlocal:    5292.5 ave 5332 max 5253 min
Histogram: 1 0 0 2 1 0 0 0 1 1
Nghost:    7778.67 ave 7982 max 7439 min
Histogram: 1 0 0 0 1 1 0 1 0 2
Neighs:    302684 ave 312793 max 296396 min
Histogram: 3 0 0 0 1 0 1 0 0 1
FullNghs: 605368 ave 624964 max 595066 min
Histogram: 3 0 0 0 1 1 0 0 0 1

Total # of neighbors = 3632208
Ave neighs/atom = 114.382
Ave special neighs/atom = 5.09986
Neighbor list builds = 100
Dangerous builds = 100
velocity all zero linear
WARNING: Use special bonds = 0,1,1 with bond style fene (bond_fene.cpp:189)
Memory usage per processor = 18.891 Mbytes
Step sdpd_kin pTemp 
  568000 1.0275577e+09 1.0045717e+09 
  568100 1.0268817e+09 1.0042517e+09 
  568200 1.028938e+09 1.0064033e+09 
  568300 1.0269631e+09 1.0039429e+09 
  568400 1.0214479e+09 9.9855377e+08 
  568500 1.0215647e+09 9.9918503e+08 
  568600 1.0232285e+09 1.0008183e+09 
  568700 1.0257557e+09 1.0035907e+09 
  568800 1.0268059e+09 1.0052447e+09 
  568900 1.0212522e+09 9.9926002e+08 
  569000 1.0272911e+09 1.0054437e+09 
Loop time of 670.619 on 6 procs for 1000 steps with 31755 atoms

Pair  time (%) = 603.54 (89.9974)
Bond  time (%) = 0.775033 (0.11557)
Neigh time (%) = 5.14635 (0.767403)
Comm  time (%) = 26.0641 (3.88657)
Outpt time (%) = 2.08863 (0.311448)
Other time (%) = 33.0051 (4.92159)

Nlocal:    5292.5 ave 5381 max 5143 min
Histogram: 1 0 0 1 0 1 0 0 1 2
Nghost:    7706.67 ave 7880 max 7589 min
Histogram: 2 0 0 1 1 1 0 0 0 1
Neighs:    301928 ave 311387 max 287370 min
Histogram: 1 0 0 0 1 0 1 2 0 1
FullNghs: 603856 ave 621356 max 575520 min
Histogram: 1 0 0 0 0 1 1 2 0 1

Total # of neighbors = 3623136
Ave neighs/atom = 114.097
Ave special neighs/atom = 5.09986
Neighbor list builds = 100
Dangerous builds = 100
velocity all zero linear
WARNING: Use special bonds = 0,1,1 with bond style fene (bond_fene.cpp:189)
Memory usage per processor = 18.891 Mbytes
Step sdpd_kin pTemp 
  569000 1.0272911e+09 1.0054437e+09 
  569100 1.0268261e+09 1.0050597e+09 
  569200 1.0224855e+09 1.0010134e+09 
  569300 1.0227931e+09 1.0003917e+09 
  569400 1.0159774e+09 9.9432266e+08 
  569500 1.025191e+09 1.0035592e+09 
  569600 1.0299614e+09 1.008453e+09 
  569700 1.0266728e+09 1.0043593e+09 
  569800 1.024304e+09 1.002837e+09 
  569900 1.0339305e+09 1.0127756e+09 
  570000 1.0227551e+09 1.0010502e+09 
Loop time of 666.178 on 6 procs for 1000 steps with 31755 atoms

Pair  time (%) = 601.934 (90.3564)
Bond  time (%) = 0.77772 (0.116744)
Neigh time (%) = 5.16885 (0.775896)
Comm  time (%) = 21.7223 (3.26074)
Outpt time (%) = 2.10488 (0.315963)
Other time (%) = 34.4694 (5.17421)

Nlocal:    5292.5 ave 5324 max 5242 min
Histogram: 1 0 0 0 2 0 0 0 1 2
Nghost:    7792.17 ave 7997 max 7563 min
Histogram: 1 0 0 0 2 0 2 0 0 1
Neighs:    301882 ave 305760 max 299445 min
Histogram: 2 1 1 0 0 0 0 0 1 1
FullNghs: 603764 ave 611845 max 598773 min
Histogram: 1 2 1 0 0 0 0 1 0 1

Total # of neighbors = 3622582
Ave neighs/atom = 114.079
Ave special neighs/atom = 5.09986
Neighbor list builds = 100
Dangerous builds = 99
velocity all zero linear
WARNING: Use special bonds = 0,1,1 with bond style fene (bond_fene.cpp:189)
Memory usage per processor = 18.891 Mbytes
Step sdpd_kin pTemp 
  570000 1.022755e+09 1.0010502e+09 
  570100 1.0241618e+09 1.0032051e+09 
  570200 1.0202562e+09 9.9909459e+08 
  570300 1.0224796e+09 1.0012746e+09 
  570400 1.0217693e+09 1.0010484e+09 
  570500 1.0183579e+09 9.9694568e+08 
  570600 1.0253916e+09 1.0042288e+09 
  570700 1.0307208e+09 1.0091396e+09 
  570800 1.0250527e+09 1.0027846e+09 
  570900 1.0267504e+09 1.004041e+09 
  571000 1.0210885e+09 9.9871728e+08 
Loop time of 665.26 on 6 procs for 1000 steps with 31755 atoms

Pair  time (%) = 601.063 (90.3502)
Bond  time (%) = 0.785147 (0.118021)
Neigh time (%) = 5.17475 (0.777854)
Comm  time (%) = 19.9393 (2.99722)
Outpt time (%) = 2.10369 (0.31622)
Other time (%) = 36.1933 (5.44048)

Nlocal:    5292.5 ave 5395 max 5139 min
Histogram: 1 0 0 0 0 1 2 1 0 1
Nghost:    7798.5 ave 7901 max 7743 min
Histogram: 2 2 0 0 0 0 0 0 1 1
Neighs:    301491 ave 311133 max 285316 min
Histogram: 1 0 0 0 0 1 1 2 0 1
FullNghs: 602982 ave 622031 max 572445 min
Histogram: 1 0 0 0 0 1 1 2 0 1

Total # of neighbors = 3617894
Ave neighs/atom = 113.931
Ave special neighs/atom = 5.09986
Neighbor list builds = 100
Dangerous builds = 100
velocity all zero linear
WARNING: Use special bonds = 0,1,1 with bond style fene (bond_fene.cpp:189)
Memory usage per processor = 18.891 Mbytes
Step sdpd_kin pTemp 
  571000 1.0210884e+09 9.9871728e+08 
  571100 1.0242554e+09 1.0018634e+09 
  571200 1.0197421e+09 9.9815915e+08 
  571300 1.0223556e+09 1.0003826e+09 
  571400 1.0290265e+09 1.0071647e+09 
  571500 1.0255961e+09 1.0042385e+09 
  571600 1.0213342e+09 9.9985106e+08 
  571700 1.0219761e+09 1.0007184e+09 
  571800 1.0151404e+09 9.9344598e+08 
  571900 1.0260326e+09 1.0043454e+09 
  572000 1.0209282e+09 9.9939474e+08 
Loop time of 672.041 on 6 procs for 1000 steps with 31755 atoms

Pair  time (%) = 599.423 (89.1944)
Bond  time (%) = 0.783345 (0.116562)
Neigh time (%) = 5.15772 (0.767471)
Comm  time (%) = 30.2658 (4.50356)
Outpt time (%) = 2.10476 (0.313189)
Other time (%) = 34.3068 (5.10487)

Nlocal:    5292.5 ave 5495 max 5150 min
Histogram: 1 1 0 0 2 1 0 0 0 1
Nghost:    7748.67 ave 7983 max 7605 min
Histogram: 1 1 0 1 2 0 0 0 0 1
Neighs:    301570 ave 320622 max 290705 min
Histogram: 2 0 0 3 0 0 0 0 0 1
FullNghs: 603140 ave 641039 max 581373 min
Histogram: 2 0 0 2 1 0 0 0 0 1

Total # of neighbors = 3618838
Ave neighs/atom = 113.961
Ave special neighs/atom = 5.09986
Neighbor list builds = 100
Dangerous builds = 100
velocity all zero linear
WARNING: Use special bonds = 0,1,1 with bond style fene (bond_fene.cpp:189)
Memory usage per processor = 18.1281 Mbytes
Step sdpd_kin pTemp 
  572000 1.0209281e+09 9.9939474e+08 
  572100 1.0232635e+09 1.0015577e+09 
  572200 1.0179737e+09 9.9619609e+08 
  572300 1.0185332e+09 9.9688836e+08 
  572400 1.0273399e+09 1.0057177e+09 
  572500 1.0236415e+09 1.0021164e+09 
  572600 1.0271814e+09 1.0054426e+09 
  572700 1.0187172e+09 9.9710448e+08 
  572800 1.0201689e+09 9.9831145e+08 
  572900 1.0327808e+09 1.0109179e+09 
  573000 1.0210726e+09 9.9890499e+08 
Loop time of 671.846 on 6 procs for 1000 steps with 31755 atoms

Pair  time (%) = 600 (89.3061)
Bond  time (%) = 0.787438 (0.117205)
Neigh time (%) = 5.16767 (0.769174)
Comm  time (%) = 29.5093 (4.39227)
Outpt time (%) = 2.11565 (0.3149)
Other time (%) = 34.2664 (5.10034)

Nlocal:    5292.5 ave 5428 max 5212 min
Histogram: 2 1 1 0 0 0 0 0 1 1
Nghost:    7767 ave 7974 max 7662 min
Histogram: 2 1 0 1 0 1 0 0 0 1
Neighs:    301198 ave 315226 max 293492 min
Histogram: 2 2 0 0 0 0 0 1 0 1
FullNghs: 602397 ave 631702 max 588069 min
Histogram: 3 1 0 0 0 0 0 1 0 1

Total # of neighbors = 3614380
Ave neighs/atom = 113.821
Ave special neighs/atom = 5.09986
Neighbor list builds = 100
Dangerous builds = 100
velocity all zero linear
WARNING: Use special bonds = 0,1,1 with bond style fene (bond_fene.cpp:189)
Memory usage per processor = 18.891 Mbytes
Step sdpd_kin pTemp 
  573000 1.0210726e+09 9.9890499e+08 
  573100 1.0227466e+09 1.0005856e+09 
  573200 1.0296326e+09 1.0072281e+09 
  573300 1.0224998e+09 9.9984279e+08 
  573400 1.0192268e+09 9.9692615e+08 
  573500 1.027682e+09 1.0058948e+09 
  573600 1.0249033e+09 1.002625e+09 
  573700 1.0225257e+09 1.0003806e+09 
  573800 1.0273653e+09 1.0061716e+09 
  573900 1.0260788e+09 1.0048064e+09 
  574000 1.0283938e+09 1.0071891e+09 
Loop time of 681.471 on 6 procs for 1000 steps with 31755 atoms

Pair  time (%) = 599.339 (87.9479)
Bond  time (%) = 0.801721 (0.117646)
Neigh time (%) = 5.1446 (0.754926)
Comm  time (%) = 39.5003 (5.79633)
Outpt time (%) = 2.1045 (0.308818)
Other time (%) = 34.5807 (5.07441)

Nlocal:    5292.5 ave 5402 max 5106 min
Histogram: 1 0 0 0 0 1 1 1 1 1
Nghost:    7761.83 ave 8044 max 7551 min
Histogram: 1 0 1 2 0 1 0 0 0 1
Neighs:    300717 ave 307649 max 284195 min
Histogram: 1 0 0 0 0 0 1 1 1 2
FullNghs: 601434 ave 616250 max 566865 min
Histogram: 1 0 0 0 0 0 1 1 1 2

Total # of neighbors = 3608602
Ave neighs/atom = 113.639
Ave special neighs/atom = 5.09986
Neighbor list builds = 100
Dangerous builds = 100
velocity all zero linear
WARNING: Use special bonds = 0,1,1 with bond style fene (bond_fene.cpp:189)
Memory usage per processor = 18.891 Mbytes
Step sdpd_kin pTemp 
  574000 1.0283938e+09 1.0071891e+09 
  574100 1.0261669e+09 1.0050733e+09 
  574200 1.0289123e+09  1.00842e+09 
  574300 1.0266157e+09 1.0059555e+09 
  574400 1.0306792e+09 1.0103961e+09 
  574500 1.0271571e+09 1.0060812e+09 
  574600 1.0263647e+09 1.0054821e+09 
  574700 1.0193258e+09 9.9892379e+08 
  574800 1.0196908e+09 9.9927801e+08 
  574900 1.0241718e+09 1.0041566e+09 
  575000 1.0255941e+09 1.0057023e+09 
Loop time of 669.006 on 6 procs for 1000 steps with 31755 atoms

Pair  time (%) = 600.333 (89.7352)
Bond  time (%) = 0.793098 (0.118549)
Neigh time (%) = 5.13952 (0.768233)
Comm  time (%) = 27.3076 (4.08182)
Outpt time (%) = 2.1041 (0.314512)
Other time (%) = 33.3279 (4.9817)

Nlocal:    5292.5 ave 5463 max 5099 min
Histogram: 1 0 0 0 2 0 1 1 0 1
Nghost:    7892.83 ave 8099 max 7739 min
Histogram: 2 0 1 1 0 0 0 0 1 1
Neighs:    301029 ave 316059 max 283007 min
Histogram: 1 0 0 1 1 0 0 2 0 1
FullNghs: 602058 ave 633946 max 565438 min
Histogram: 1 0 0 1 1 0 1 1 0 1

Total # of neighbors = 3612346
Ave neighs/atom = 113.757
Ave special neighs/atom = 5.09986
Neighbor list builds = 100
Dangerous builds = 100
velocity all zero linear
WARNING: Use special bonds = 0,1,1 with bond style fene (bond_fene.cpp:189)
Memory usage per processor = 18.891 Mbytes
Step sdpd_kin pTemp 
  575000 1.025594e+09 1.0057023e+09 
  575100 1.0134523e+09 9.932149e+08 
  575200 1.0231027e+09 1.0025669e+09 
  575300 1.027091e+09 1.0063858e+09 
  575400 1.0236971e+09 1.0028429e+09 
  575500 1.0271319e+09 1.0061872e+09 
  575600 1.0231019e+09 1.0020843e+09 
  575700 1.0350111e+09 1.0140087e+09 
  575800 1.0289409e+09 1.007509e+09 
  575900 1.0222401e+09 1.0006538e+09 
  576000 1.0312063e+09 1.0096735e+09 
Loop time of 680 on 6 procs for 1000 steps with 31755 atoms

Pair  time (%) = 602.697 (88.6318)
Bond  time (%) = 0.804466 (0.118304)
Neigh time (%) = 5.16492 (0.759547)
Comm  time (%) = 34.8816 (5.12965)
Outpt time (%) = 2.10399 (0.30941)
Other time (%) = 34.3486 (5.05126)

Nlocal:    5292.5 ave 5451 max 5108 min
Histogram: 1 1 0 0 0 0 1 2 0 1
Nghost:    7737.67 ave 8016 max 7545 min
Histogram: 1 1 1 0 1 1 0 0 0 1
Neighs:    301178 ave 320558 max 280103 min
Histogram: 2 0 0 0 0 0 2 1 0 1
FullNghs: 602355 ave 639449 max 562081 min
Histogram: 2 0 0 0 0 0 2 1 0 1

Total # of neighbors = 3614130
Ave neighs/atom = 113.813
Ave special neighs/atom = 5.09986
Neighbor list builds = 100
Dangerous builds = 100
velocity all zero linear
WARNING: Use special bonds = 0,1,1 with bond style fene (bond_fene.cpp:189)
Memory usage per processor = 18.891 Mbytes
Step sdpd_kin pTemp 
  576000 1.031206e+09 1.0096735e+09 
  576100 1.0322994e+09 1.0105697e+09 
  576200 1.0309248e+09 1.0087013e+09 
  576300 1.0235333e+09 1.0014838e+09 
  576400 1.0141968e+09 9.9173966e+08 
  576500 1.0219375e+09 9.9944941e+08 
  576600 1.0233929e+09 1.000948e+09 
  576700 1.0298223e+09 1.0075795e+09 
  576800 1.0274414e+09 1.0052298e+09 
  576900 1.0293029e+09 1.0073313e+09 
  577000 1.0303092e+09 1.007578e+09 
Loop time of 682.73 on 6 procs for 1000 steps with 31755 atoms

Pair  time (%) = 603.35 (88.3731)
Bond  time (%) = 0.805685 (0.118009)
Neigh time (%) = 5.15422 (0.754943)
Comm  time (%) = 36.419 (5.33432)
Outpt time (%) = 2.11852 (0.310301)
Other time (%) = 34.8826 (5.10929)

Nlocal:    5292.5 ave 5476 max 5094 min
Histogram: 1 0 1 1 0 0 1 0 1 1
Nghost:    7821.67 ave 8084 max 7642 min
Histogram: 1 2 0 1 0 0 0 1 0 1
Neighs:    301194 ave 316569 max 280260 min
Histogram: 1 0 1 0 1 0 0 0 1 2
FullNghs: 602388 ave 634709 max 561047 min
Histogram: 1 0 1 0 1 0 0 1 1 1

Total # of neighbors = 3614330
Ave neighs/atom = 113.819
Ave special neighs/atom = 5.09986
Neighbor list builds = 100
Dangerous builds = 100
velocity all zero linear
WARNING: Use special bonds = 0,1,1 with bond style fene (bond_fene.cpp:189)
Memory usage per processor = 18.891 Mbytes
Step sdpd_kin pTemp 
  577000 1.0303088e+09 1.007578e+09 
  577100 1.0188876e+09 9.961147e+08 
  577200 1.0260266e+09 1.002878e+09 
  577300 1.0245395e+09 1.0015709e+09 
  577400 1.0249193e+09 1.0014768e+09 
  577500 1.0212021e+09 9.9766459e+08 
  577600 1.0263604e+09 1.0029065e+09 
  577700 1.0307049e+09 1.0077297e+09 
  577800 1.0304514e+09 1.0077602e+09 
  577900 1.0224996e+09 9.9975488e+08 
  578000 1.0282334e+09 1.0057016e+09 
Loop time of 668.143 on 6 procs for 1000 steps with 31755 atoms

Pair  time (%) = 599.614 (89.7433)
Bond  time (%) = 0.791359 (0.118442)
Neigh time (%) = 5.14304 (0.769751)
Comm  time (%) = 26.473 (3.96218)
Outpt time (%) = 2.10317 (0.314778)
Other time (%) = 34.0187 (5.09153)

Nlocal:    5292.5 ave 5453 max 5203 min
Histogram: 1 2 0 1 0 1 0 0 0 1
Nghost:    7874.5 ave 8052 max 7600 min
Histogram: 1 0 0 1 0 0 1 1 0 2
Neighs:    300954 ave 315537 max 291022 min
Histogram: 2 0 0 1 1 1 0 0 0 1
FullNghs: 601907 ave 630845 max 582017 min
Histogram: 2 0 0 1 1 1 0 0 0 1

Total # of neighbors = 3611444
Ave neighs/atom = 113.728
Ave special neighs/atom = 5.09986
Neighbor list builds = 100
Dangerous builds = 100
velocity all zero linear
WARNING: Use special bonds = 0,1,1 with bond style fene (bond_fene.cpp:189)
Memory usage per processor = 18.1281 Mbytes
Step sdpd_kin pTemp 
  578000 1.0282332e+09 1.0057016e+09 
  578100 1.0300397e+09 1.0079448e+09 
  578200 1.0232486e+09 1.0009964e+09 
  578300 1.0339115e+09 1.0116987e+09 
  578400 1.0232748e+09 1.0013961e+09 
  578500 1.0269634e+09 1.0049047e+09 
  578600 1.0235508e+09 1.0020463e+09 
  578700 1.0250923e+09 1.0026994e+09 
  578800 1.0255656e+09 1.0032051e+09 
  578900 1.022531e+09 1.0003886e+09 
  579000 1.0280796e+09 1.0061019e+09 
Loop time of 696.676 on 6 procs for 1000 steps with 31755 atoms

Pair  time (%) = 603.331 (86.6014)
Bond  time (%) = 0.779334 (0.111865)
Neigh time (%) = 5.11769 (0.734587)
Comm  time (%) = 52.1108 (7.47992)
Outpt time (%) = 2.11524 (0.303619)
Other time (%) = 33.2219 (4.76863)

Nlocal:    5292.5 ave 5522 max 5182 min
Histogram: 2 1 1 0 0 1 0 0 0 1
Nghost:    7927.67 ave 8135 max 7833 min
Histogram: 2 1 1 0 1 0 0 0 0 1
Neighs:    301956 ave 327808 max 288862 min
Histogram: 2 1 1 0 0 1 0 0 0 1
FullNghs: 603913 ave 655985 max 576001 min
Histogram: 2 1 1 0 0 1 0 0 0 1

Total # of neighbors = 3623476
Ave neighs/atom = 114.107
Ave special neighs/atom = 5.09986
Neighbor list builds = 100
Dangerous builds = 100
velocity all zero linear
WARNING: Use special bonds = 0,1,1 with bond style fene (bond_fene.cpp:189)
Memory usage per processor = 18.1281 Mbytes
Step sdpd_kin pTemp 
  579000 1.0280794e+09 1.0061019e+09 
  579100 1.0187981e+09 9.9702949e+08 
  579200 1.029626e+09 1.0075978e+09 
  579300 1.0272983e+09 1.0055542e+09 
  579400 1.0278901e+09 1.0066543e+09 
  579500 1.0239885e+09 1.0026748e+09 
  579600 1.0234068e+09 1.0016599e+09 
  579700 1.0204557e+09 9.9878371e+08 
  579800 1.0290024e+09 1.007165e+09 
  579900 1.0211428e+09 9.9955434e+08 
  580000 1.0295911e+09 1.0082553e+09 
Loop time of 682.809 on 6 procs for 1000 steps with 31755 atoms

Pair  time (%) = 604.485 (88.5292)
Bond  time (%) = 0.807299 (0.118232)
Neigh time (%) = 5.17552 (0.757975)
Comm  time (%) = 35.4795 (5.1961)
Outpt time (%) = 2.12961 (0.31189)
Other time (%) = 34.7321 (5.08665)

Nlocal:    5292.5 ave 5454 max 5206 min
Histogram: 1 1 2 0 1 0 0 0 0 1
Nghost:    7887.83 ave 8145 max 7744 min
Histogram: 2 1 0 0 2 0 0 0 0 1
Neighs:    303053 ave 318060 max 293039 min
Histogram: 1 1 0 2 1 0 0 0 0 1
FullNghs: 606105 ave 638685 max 585977 min
Histogram: 1 1 0 2 1 0 0 0 0 1

Total # of neighbors = 3636632
Ave neighs/atom = 114.522
Ave special neighs/atom = 5.09986
Neighbor list builds = 100
Dangerous builds = 99
velocity all zero linear
WARNING: Use special bonds = 0,1,1 with bond style fene (bond_fene.cpp:189)
Memory usage per processor = 18.891 Mbytes
Step sdpd_kin pTemp 
  580000 1.0295907e+09 1.0082553e+09 
  580100 1.0236942e+09 1.0021424e+09 
  580200 1.0223759e+09 1.0007158e+09 
  580300 1.0254696e+09 1.0037276e+09 
  580400 1.0172859e+09 9.9606105e+08 
  580500 1.0261304e+09 1.0047936e+09 
  580600 1.0242685e+09 1.0028432e+09 
  580700 1.0273761e+09 1.0055893e+09 
  580800 1.0251924e+09 1.0031977e+09 
  580900  1.02544e+09 1.0038445e+09 
  581000 1.0359477e+09 1.0142227e+09 
Loop time of 679.106 on 6 procs for 1000 steps with 31755 atoms

Pair  time (%) = 604.809 (89.0596)
Bond  time (%) = 0.787102 (0.115903)
Neigh time (%) = 5.15161 (0.758587)
Comm  time (%) = 33.0092 (4.86068)
Outpt time (%) = 2.10397 (0.309814)
Other time (%) = 33.2453 (4.89545)

Nlocal:    5292.5 ave 5459 max 5173 min
Histogram: 1 0 2 1 0 0 1 0 0 1
Nghost:    7734.17 ave 7862 max 7583 min
Histogram: 1 0 1 0 1 0 0 2 0 1
Neighs:    303370 ave 320468 max 286881 min
Histogram: 1 0 0 1 2 0 0 1 0 1
FullNghs: 606741 ave 642931 max 573092 min
Histogram: 1 0 0 1 2 0 1 0 0 1

Total # of neighbors = 3640446
Ave neighs/atom = 114.642
Ave special neighs/atom = 5.09986
Neighbor list builds = 100
Dangerous builds = 100
velocity all zero linear
WARNING: Use special bonds = 0,1,1 with bond style fene (bond_fene.cpp:189)
Memory usage per processor = 18.891 Mbytes
Step sdpd_kin pTemp 
  581000 1.0359474e+09 1.0142227e+09 
  581100 1.0228661e+09 1.000991e+09 
  581200 1.0246117e+09 1.0031393e+09 
  581300 1.0220649e+09 1.0004785e+09 
  581400 1.0309729e+09 1.0097145e+09 
  581500 1.0279005e+09 1.0063633e+09 
  581600 1.0257039e+09 1.0040764e+09 
  581700 1.0263926e+09 1.0040058e+09 
  581800 1.0239721e+09 1.0022943e+09 
  581900 1.0261901e+09 1.0044272e+09 
  582000 1.0214432e+09 1.0000201e+09 
Loop time of 681.467 on 6 procs for 1000 steps with 31755 atoms

Pair  time (%) = 603.629 (88.5779)
Bond  time (%) = 0.79346 (0.116434)
Neigh time (%) = 5.15821 (0.756928)
Comm  time (%) = 34.9988 (5.13581)
Outpt time (%) = 2.13968 (0.313982)
Other time (%) = 34.7474 (5.09891)

Nlocal:    5292.5 ave 5405 max 5066 min
Histogram: 1 0 0 1 0 0 0 1 1 2
Nghost:    7706 ave 7886 max 7574 min
Histogram: 1 1 1 1 0 0 0 1 0 1
Neighs:    302444 ave 315852 max 279951 min
Histogram: 1 0 0 1 0 0 1 0 1 2
FullNghs: 604888 ave 632477 max 559016 min
Histogram: 1 0 0 1 0 0 1 0 2 1

Total # of neighbors = 3629328
Ave neighs/atom = 114.292
Ave special neighs/atom = 5.09986
Neighbor list builds = 100
Dangerous builds = 100
velocity all zero linear
WARNING: Use special bonds = 0,1,1 with bond style fene (bond_fene.cpp:189)
Memory usage per processor = 18.891 Mbytes
Step sdpd_kin pTemp 
  582000 1.0214427e+09 1.0000201e+09 
  582100 1.0273818e+09 1.005863e+09 
  582200 1.0255835e+09 1.004142e+09 
  582300 1.0231212e+09  1.00181e+09 
  582400 1.0277138e+09 1.0060003e+09 
  582500 1.026995e+09 1.0053284e+09 
  582600 1.0238895e+09 1.0025345e+09 
  582700 1.0306894e+09 1.0094726e+09 
  582800 1.0263512e+09 1.0057913e+09 
  582900 1.023861e+09 1.002965e+09 
  583000 1.0257092e+09 1.0045188e+09 
Loop time of 679.254 on 6 procs for 1000 steps with 31755 atoms

Pair  time (%) = 603.081 (88.7858)
Bond  time (%) = 0.786017 (0.115718)
Neigh time (%) = 5.13432 (0.755876)
Comm  time (%) = 33.3612 (4.91145)
Outpt time (%) = 2.11349 (0.311148)
Other time (%) = 34.7778 (5.12)

Nlocal:    5292.5 ave 5471 max 5105 min
Histogram: 2 0 0 0 1 0 1 0 1 1
Nghost:    7721.83 ave 7948 max 7467 min
Histogram: 1 0 1 1 0 0 1 0 0 2
Neighs:    302969 ave 320049 max 283394 min
Histogram: 1 1 0 0 1 0 0 1 1 1
FullNghs: 605938 ave 638289 max 567183 min
Histogram: 1 1 0 0 1 0 0 1 1 1

Total # of neighbors = 3635626
Ave neighs/atom = 114.49
Ave special neighs/atom = 5.09986
Neighbor list builds = 100
Dangerous builds = 100
velocity all zero linear
WARNING: Use special bonds = 0,1,1 with bond style fene (bond_fene.cpp:189)
Memory usage per processor = 18.891 Mbytes
Step sdpd_kin pTemp 
  583000 1.0257086e+09 1.0045188e+09 
  583100 1.0287769e+09 1.0080014e+09 
  583200 1.0231195e+09 1.0023009e+09 
  583300 1.0275376e+09 1.0068355e+09 
  583400 1.0295938e+09 1.0082264e+09 
  583500 1.024468e+09 1.0037602e+09 
  583600 1.0298418e+09 1.0093549e+09 
  583700 1.0237082e+09 1.0030927e+09 
  583800 1.0193116e+09 9.9824172e+08 
  583900 1.0340476e+09 1.0127614e+09 
  584000 1.0195246e+09 9.9821488e+08 
Loop time of 668.059 on 6 procs for 1000 steps with 31755 atoms

Pair  time (%) = 600.449 (89.8796)
Bond  time (%) = 0.788745 (0.118065)
Neigh time (%) = 5.12704 (0.767453)
Comm  time (%) = 26.0549 (3.90008)
Outpt time (%) = 2.11515 (0.316611)
Other time (%) = 33.5243 (5.01817)

Nlocal:    5292.5 ave 5451 max 5165 min
Histogram: 1 0 1 1 1 0 1 0 0 1
Nghost:    7722 ave 7823 max 7472 min
Histogram: 1 0 0 0 0 1 0 0 2 2
Neighs:    301710 ave 317662 max 289378 min
Histogram: 1 0 1 1 1 1 0 0 0 1
FullNghs: 603420 ave 635184 max 578636 min
Histogram: 1 0 1 1 1 1 0 0 0 1

Total # of neighbors = 3620522
Ave neighs/atom = 114.014
Ave special neighs/atom = 5.09986
Neighbor list builds = 100
Dangerous builds = 100
velocity all zero linear
WARNING: Use special bonds = 0,1,1 with bond style fene (bond_fene.cpp:189)
Memory usage per processor = 18.891 Mbytes
Step sdpd_kin pTemp 
  584000 1.019524e+09 9.9821488e+08 
  584100 1.0162485e+09 9.9535902e+08 
  584200 1.0248158e+09 1.0038983e+09 
  584300 1.0231157e+09 1.0023623e+09 
  584400 1.019156e+09 9.9849261e+08 
  584500 1.0239035e+09 1.0032631e+09 
  584600 1.020412e+09 9.997124e+08 
  584700 1.0181988e+09 9.9778138e+08 
  584800 1.0210832e+09 1.0007595e+09 
  584900 1.0195776e+09 9.9934814e+08 
  585000 1.0292882e+09 1.0087778e+09 
Loop time of 678.537 on 6 procs for 1000 steps with 31755 atoms

Pair  time (%) = 603.729 (88.9751)
Bond  time (%) = 0.791234 (0.116609)
Neigh time (%) = 5.15864 (0.760258)
Comm  time (%) = 32.5733 (4.80052)
Outpt time (%) = 2.1086 (0.310756)
Other time (%) = 34.1762 (5.03674)

Nlocal:    5292.5 ave 5451 max 5182 min
Histogram: 1 1 1 0 1 1 0 0 0 1
Nghost:    7812.67 ave 7966 max 7630 min
Histogram: 1 0 0 1 1 1 0 0 1 1
Neighs:    303811 ave 318165 max 294114 min
Histogram: 2 0 0 1 1 1 0 0 0 1
FullNghs: 607621 ave 635691 max 588437 min
Histogram: 2 0 0 1 1 1 0 0 0 1

Total # of neighbors = 3645728
Ave neighs/atom = 114.808
Ave special neighs/atom = 5.09986
Neighbor list builds = 100
Dangerous builds = 100
velocity all zero linear
WARNING: Use special bonds = 0,1,1 with bond style fene (bond_fene.cpp:189)
Memory usage per processor = 18.1281 Mbytes
Step sdpd_kin pTemp 
  585000 1.029288e+09 1.0087778e+09 
  585100 1.0220805e+09 1.0019019e+09 
  585200 1.018923e+09 9.9855204e+08 
  585300 1.0239839e+09 1.003688e+09 
  585400 1.0261754e+09 1.0050725e+09 
  585500 1.0153066e+09 9.9414947e+08 
  585600 1.0185029e+09 9.971486e+08 
  585700  1.02008e+09 9.9884116e+08 
  585800 1.0265845e+09 1.0054823e+09 
  585900 1.0250763e+09 1.0041391e+09 
  586000 1.0350851e+09 1.0140247e+09 
Loop time of 673.674 on 6 procs for 1000 steps with 31755 atoms

Pair  time (%) = 605.712 (89.9118)
Bond  time (%) = 0.796426 (0.118221)
Neigh time (%) = 5.16531 (0.766738)
Comm  time (%) = 25.8113 (3.83142)
Outpt time (%) = 2.12996 (0.316171)
Other time (%) = 34.0588 (5.05569)

Nlocal:    5292.5 ave 5421 max 5139 min
Histogram: 1 0 1 0 0 0 2 1 0 1
Nghost:    7724 ave 7894 max 7613 min
Histogram: 2 0 1 0 1 0 1 0 0 1
Neighs:    303527 ave 311816 max 290055 min
Histogram: 1 0 1 0 0 0 0 2 0 2
FullNghs: 607054 ave 624275 max 579288 min
Histogram: 1 0 1 0 0 0 0 2 0 2

Total # of neighbors = 3642326
Ave neighs/atom = 114.701
Ave special neighs/atom = 5.09986
Neighbor list builds = 100
Dangerous builds = 100
velocity all zero linear
WARNING: Use special bonds = 0,1,1 with bond style fene (bond_fene.cpp:189)
Memory usage per processor = 18.1281 Mbytes
Step sdpd_kin pTemp 
  586000 1.0350851e+09 1.0140247e+09 
  586100 1.0275017e+09 1.0059989e+09 
  586200 1.0209378e+09 9.9960054e+08 
  586300 1.015044e+09 9.9394474e+08 
  586400 1.0216884e+09 1.0004747e+09 
  586500 1.0253334e+09 1.0039914e+09 
  586600 1.0260708e+09 1.0047654e+09 
  586700 1.0294368e+09 1.007543e+09 
  586800 1.0171361e+09 9.9528675e+08 
  586900 1.0182276e+09 9.9672228e+08 
  587000 1.0231792e+09 1.0018623e+09 
Loop time of 673.909 on 6 procs for 1000 steps with 31755 atoms

Pair  time (%) = 606.13 (89.9423)
Bond  time (%) = 0.803996 (0.119303)
Neigh time (%) = 5.17801 (0.768355)
Comm  time (%) = 25.4968 (3.78342)
Outpt time (%) = 2.11348 (0.313616)
Other time (%) = 34.1871 (5.07296)

Nlocal:    5292.5 ave 5455 max 5152 min
Histogram: 1 0 1 0 1 1 1 0 0 1
Nghost:    7834 ave 8014 max 7719 min
Histogram: 1 1 2 0 0 0 1 0 0 1
Neighs:    303592 ave 320136 max 292082 min
Histogram: 2 0 0 1 1 1 0 0 0 1
FullNghs: 607184 ave 638046 max 583037 min
Histogram: 1 1 0 0 2 0 1 0 0 1

Total # of neighbors = 3643104
Ave neighs/atom = 114.725
Ave special neighs/atom = 5.09986
Neighbor list builds = 100
Dangerous builds = 100
velocity all zero linear
WARNING: Use special bonds = 0,1,1 with bond style fene (bond_fene.cpp:189)
Memory usage per processor = 18.891 Mbytes
Step sdpd_kin pTemp 
  587000 1.023179e+09 1.0018623e+09 
  587100 1.016861e+09 9.9482043e+08 
  587200 1.0257538e+09 1.0038352e+09 
  587300 1.0250494e+09 1.0031946e+09 
  587400 1.0270258e+09 1.004865e+09 
  587500 1.0210072e+09 9.9841679e+08 
  587600 1.0307717e+09 1.0084136e+09 
  587700 1.0313019e+09 1.008372e+09 
  587800 1.0255567e+09 1.0023941e+09 
  587900 1.0275099e+09 1.0043287e+09 
  588000 1.0357422e+09 1.0125953e+09 
Loop time of 682.541 on 6 procs for 1000 steps with 31755 atoms

Pair  time (%) = 605.162 (88.663)
Bond  time (%) = 0.79868 (0.117016)
Neigh time (%) = 5.16816 (0.757195)
Comm  time (%) = 34.7966 (5.0981)
Outpt time (%) = 2.10885 (0.308971)
Other time (%) = 34.507 (5.05567)

Nlocal:    5292.5 ave 5486 max 5156 min
Histogram: 2 0 0 1 1 1 0 0 0 1
Nghost:    7789 ave 8049 max 7661 min
Histogram: 2 1 0 0 2 0 0 0 0 1
Neighs:    303508 ave 318750 max 290643 min
Histogram: 1 1 0 1 0 0 2 0 0 1
FullNghs: 607017 ave 638576 max 580936 min
Histogram: 2 0 0 1 0 0 2 0 0 1

Total # of neighbors = 3642102
Ave neighs/atom = 114.694
Ave special neighs/atom = 5.09986
Neighbor list builds = 100
Dangerous builds = 100
velocity all zero linear
WARNING: Use special bonds = 0,1,1 with bond style fene (bond_fene.cpp:189)
Memory usage per processor = 18.891 Mbytes
Step sdpd_kin pTemp 
  588000 1.0357417e+09 1.0125953e+09 
  588100 1.0311835e+09 1.0079256e+09 
  588200 1.0202476e+09 9.9721652e+08 
  588300 1.0245851e+09 1.0018538e+09 
  588400 1.0256697e+09 1.0030346e+09 
  588500 1.028108e+09 1.0056907e+09 
  588600 1.025205e+09 1.0031115e+09 
  588700 1.0266983e+09 1.003993e+09 
  588800 1.028977e+09 1.006672e+09 
  588900 1.0187839e+09 9.9698605e+08 
  589000 1.0179146e+09 9.9596983e+08 
Loop time of 684.478 on 6 procs for 1000 steps with 31755 atoms

Pair  time (%) = 605.338 (88.4379)
Bond  time (%) = 0.808598 (0.118133)
Neigh time (%) = 5.17523 (0.756083)
Comm  time (%) = 36.8601 (5.38514)
Outpt time (%) = 2.12556 (0.310537)
Other time (%) = 34.1705 (4.99219)

Nlocal:    5292.5 ave 5516 max 5127 min
Histogram: 1 0 1 1 2 0 0 0 0 1
Nghost:    7781.67 ave 7904 max 7624 min
Histogram: 1 0 1 0 0 0 2 0 0 2
Neighs:    303018 ave 325683 max 283305 min
Histogram: 1 0 0 1 2 1 0 0 0 1
FullNghs: 606036 ave 652437 max 565157 min
Histogram: 1 0 0 1 2 1 0 0 0 1

Total # of neighbors = 3636216
Ave neighs/atom = 114.508
Ave special neighs/atom = 5.09986
Neighbor list builds = 100
Dangerous builds = 100
velocity all zero linear
WARNING: Use special bonds = 0,1,1 with bond style fene (bond_fene.cpp:189)
Memory usage per processor = 18.891 Mbytes
Step sdpd_kin pTemp 
  589000 1.0179137e+09 9.9596983e+08 
  589100 1.0114565e+09 9.8905261e+08 
  589200 1.0247678e+09 1.003178e+09 
  589300 1.0304503e+09 1.0084549e+09 
  589400 1.0196156e+09 9.9760712e+08 
  589500 1.0158182e+09 9.9349782e+08 
  589600 1.0265663e+09 1.0041413e+09 
  589700 1.0259925e+09 1.0040615e+09 
  589800 1.0243031e+09 1.0018442e+09 
  589900 1.0225559e+09 9.9990485e+08 
  590000 1.0309088e+09 1.0085053e+09 
Loop time of 686.299 on 6 procs for 1000 steps with 31755 atoms

Pair  time (%) = 605.574 (88.2377)
Bond  time (%) = 0.799913 (0.116555)
Neigh time (%) = 5.1524 (0.750751)
Comm  time (%) = 37.7218 (5.49641)
Outpt time (%) = 2.12108 (0.30906)
Other time (%) = 34.9297 (5.08957)

Nlocal:    5292.5 ave 5411 max 5172 min
Histogram: 1 0 0 0 3 0 0 1 0 1
Nghost:    7858 ave 8005 max 7668 min
Histogram: 2 0 0 0 0 1 0 0 1 2
Neighs:    302952 ave 312176 max 287011 min
Histogram: 1 0 0 0 1 1 0 0 2 1
FullNghs: 605903 ave 625479 max 573057 min
Histogram: 1 0 0 0 0 2 0 1 1 1

Total # of neighbors = 3635420
Ave neighs/atom = 114.483
Ave special neighs/atom = 5.09986
Neighbor list builds = 100
Dangerous builds = 99
velocity all zero linear
WARNING: Use special bonds = 0,1,1 with bond style fene (bond_fene.cpp:189)
Memory usage per processor = 18.891 Mbytes
Step sdpd_kin pTemp 
  590000 1.0309081e+09 1.0085053e+09 
  590100 1.0224647e+09 1.0005477e+09 
  590200 1.0227031e+09 1.0006521e+09 
  590300 1.0278968e+09 1.0060462e+09 
  590400 1.0300524e+09 1.0079501e+09 
  590500 1.0254012e+09 1.0031313e+09 
  590600 1.0200431e+09 9.9791689e+08 
  590700 1.0228222e+09 1.0006983e+09 
  590800 1.0317651e+09 1.0102821e+09 
  590900 1.0296058e+09 1.008353e+09 
  591000 1.018878e+09 9.9765246e+08 
Loop time of 669.247 on 6 procs for 1000 steps with 31755 atoms

Pair  time (%) = 605.632 (90.4944)
Bond  time (%) = 0.825371 (0.123328)
Neigh time (%) = 5.20275 (0.777404)
Comm  time (%) = 20.362 (3.04253)
Outpt time (%) = 2.12767 (0.31792)
Other time (%) = 35.0979 (5.24438)

Nlocal:    5292.5 ave 5425 max 5147 min
Histogram: 1 0 0 1 1 1 0 1 0 1
Nghost:    7781.17 ave 7990 max 7511 min
Histogram: 1 0 0 1 1 0 0 0 2 1
Neighs:    302210 ave 313095 max 287878 min
Histogram: 1 0 0 1 0 1 0 2 0 1
FullNghs: 604420 ave 625575 max 578053 min
Histogram: 1 0 0 1 0 1 1 1 0 1

Total # of neighbors = 3626522
Ave neighs/atom = 114.203
Ave special neighs/atom = 5.09986
Neighbor list builds = 100
Dangerous builds = 100
velocity all zero linear
WARNING: Use special bonds = 0,1,1 with bond style fene (bond_fene.cpp:189)
Memory usage per processor = 18.891 Mbytes
Step sdpd_kin pTemp 
  591000 1.0188779e+09 9.9765246e+08 
  591100 1.0218202e+09 1.000368e+09 
  591200 1.0211708e+09 9.9994678e+08 
  591300 1.0232358e+09 1.0017923e+09 
  591400 1.0286499e+09 1.0073043e+09 
  591500 1.0242649e+09 1.0021441e+09 
  591600 1.0237698e+09 1.0020541e+09 
  591700 1.0274578e+09 1.005862e+09 
  591800 1.0266791e+09 1.0044046e+09 
  591900 1.0264478e+09 1.004454e+09 
  592000 1.029915e+09 1.0085741e+09 
Loop time of 670.809 on 6 procs for 1000 steps with 31755 atoms

Pair  time (%) = 605.441 (90.2553)
Bond  time (%) = 0.823116 (0.122705)
Neigh time (%) = 5.20998 (0.776671)
Comm  time (%) = 21.7452 (3.24164)
Outpt time (%) = 2.12844 (0.317295)
Other time (%) = 35.4613 (5.28635)

Nlocal:    5292.5 ave 5413 max 5198 min
Histogram: 1 0 0 3 0 0 1 0 0 1
Nghost:    7858.67 ave 8014 max 7776 min
Histogram: 2 1 0 1 0 1 0 0 0 1
Neighs:    303658 ave 312733 max 296642 min
Histogram: 1 0 2 1 0 0 0 1 0 1
FullNghs: 607317 ave 624353 max 593718 min
Histogram: 1 0 2 1 0 0 0 0 1 1

Total # of neighbors = 3643900
Ave neighs/atom = 114.75
Ave special neighs/atom = 5.09986
Neighbor list builds = 100
Dangerous builds = 100
velocity all zero linear
WARNING: Use special bonds = 0,1,1 with bond style fene (bond_fene.cpp:189)
Memory usage per processor = 18.891 Mbytes
Step sdpd_kin pTemp 
  592000 1.0299149e+09 1.0085741e+09 
  592100 1.0264051e+09 1.0048586e+09 
  592200 1.0195128e+09 9.978483e+08 
  592300 1.0273026e+09 1.0062759e+09 
  592400 1.032005e+09 1.0111609e+09 
  592500 1.015826e+09 9.9452181e+08 
  592600 1.0258527e+09 1.0046309e+09 
  592700 1.0328055e+09 1.0113694e+09 
  592800 1.0230612e+09 1.0016259e+09 
  592900 1.0185382e+09 9.9672914e+08 
  593000 1.0229192e+09 1.0007922e+09 
Loop time of 673.942 on 6 procs for 1000 steps with 31755 atoms

Pair  time (%) = 607.742 (90.1771)
Bond  time (%) = 0.821335 (0.12187)
Neigh time (%) = 5.2091 (0.77293)
Comm  time (%) = 23.2601 (3.45134)
Outpt time (%) = 2.11484 (0.313801)
Other time (%) = 34.7956 (5.16299)

Nlocal:    5292.5 ave 5397 max 5201 min
Histogram: 1 2 0 0 0 0 1 1 0 1
Nghost:    7783 ave 7856 max 7706 min
Histogram: 1 1 0 0 1 0 0 2 0 1
Neighs:    303098 ave 314130 max 290570 min
Histogram: 1 0 1 1 0 0 1 0 0 2
FullNghs: 606195 ave 627823 max 580777 min
Histogram: 1 0 0 2 0 0 1 0 0 2

Total # of neighbors = 3637170
Ave neighs/atom = 114.538
Ave special neighs/atom = 5.09986
Neighbor list builds = 100
Dangerous builds = 100
velocity all zero linear
WARNING: Use special bonds = 0,1,1 with bond style fene (bond_fene.cpp:189)
Memory usage per processor = 18.891 Mbytes
Step sdpd_kin pTemp 
  593000 1.0229187e+09 1.0007922e+09 
  593100 1.0226395e+09 1.0005341e+09 
  593200 1.0253625e+09 1.0036822e+09 
  593300 1.0202661e+09 9.9857167e+08 
  593400 1.0184209e+09 9.9680675e+08 
  593500 1.0242827e+09 1.0025493e+09 
  593600 1.0209477e+09 9.9928751e+08 
  593700 1.017457e+09 9.9603013e+08 
  593800 1.0259314e+09 1.0037143e+09 
  593900 1.0238162e+09 1.0020941e+09 
  594000 1.0272098e+09 1.0054937e+09 
Loop time of 671.6 on 6 procs for 1000 steps with 31755 atoms

Pair  time (%) = 604.815 (90.0559)
Bond  time (%) = 0.811564 (0.120841)
Neigh time (%) = 5.17798 (0.770992)
Comm  time (%) = 24.5273 (3.65208)
Outpt time (%) = 2.12768 (0.316808)
Other time (%) = 34.14 (5.08339)

Nlocal:    5292.5 ave 5350 max 5251 min
Histogram: 2 1 0 0 0 1 0 1 0 1
Nghost:    7785 ave 7981 max 7628 min
Histogram: 1 0 2 0 0 1 1 0 0 1
Neighs:    302514 ave 308227 max 296603 min
Histogram: 1 0 1 0 1 0 1 0 1 1
FullNghs: 605028 ave 616617 max 593995 min
Histogram: 1 0 1 1 0 1 0 1 0 1

Total # of neighbors = 3630166
Ave neighs/atom = 114.318
Ave special neighs/atom = 5.09986
Neighbor list builds = 100
Dangerous builds = 100
velocity all zero linear
WARNING: Use special bonds = 0,1,1 with bond style fene (bond_fene.cpp:189)
Memory usage per processor = 18.891 Mbytes
Step sdpd_kin pTemp 
  594000 1.0272095e+09 1.0054937e+09 
  594100 1.0279416e+09 1.0065428e+09 
  594200 1.0286748e+09 1.0070516e+09 
  594300 1.0309809e+09 1.0093663e+09 
  594400 1.0287277e+09 1.0076594e+09 
  594500 1.0318187e+09 1.0101996e+09 
  594600 1.0207007e+09 9.9896021e+08 
  594700 1.0240996e+09 1.0020032e+09 
  594800 1.0283704e+09 1.0062529e+09 
  594900 1.0275339e+09 1.0057169e+09 
  595000 1.0308003e+09 1.0087025e+09 
Loop time of 662.842 on 6 procs for 1000 steps with 31755 atoms

Pair  time (%) = 602.659 (90.9204)
Bond  time (%) = 0.820642 (0.123807)
Neigh time (%) = 5.181 (0.781634)
Comm  time (%) = 17.7389 (2.67618)
Outpt time (%) = 2.12395 (0.32043)
Other time (%) = 34.3186 (5.1775)

Nlocal:    5292.5 ave 5388 max 5204 min
Histogram: 1 1 0 0 1 1 0 1 0 1
Nghost:    7846 ave 8011 max 7699 min
Histogram: 1 0 2 1 0 0 0 0 0 2
Neighs:    302451 ave 311806 max 293257 min
Histogram: 1 0 0 1 1 1 1 0 0 1
FullNghs: 604902 ave 622894 max 585794 min
Histogram: 1 0 0 0 2 1 1 0 0 1

Total # of neighbors = 3629414
Ave neighs/atom = 114.294
Ave special neighs/atom = 5.09986
Neighbor list builds = 100
Dangerous builds = 100
velocity all zero linear
WARNING: Use special bonds = 0,1,1 with bond style fene (bond_fene.cpp:189)
Memory usage per processor = 18.891 Mbytes
Step sdpd_kin pTemp 
  595000 1.0308003e+09 1.0087025e+09 
  595100 1.0268367e+09 1.0045581e+09 
  595200 1.0254264e+09 1.0030994e+09 
  595300 1.0303239e+09 1.0078731e+09 
  595400 1.0140568e+09 9.9154186e+08 
  595500 1.0213176e+09 9.9894362e+08 
  595600 1.0234868e+09 1.0013243e+09 
  595700 1.0239266e+09 1.0013866e+09 
  595800 1.0262228e+09 1.0037291e+09 
  595900 1.0405141e+09 1.017435e+09 
  596000 1.031583e+09 1.0081066e+09 
Loop time of 674.408 on 6 procs for 1000 steps with 31755 atoms

Pair  time (%) = 608.875 (90.283)
Bond  time (%) = 0.865762 (0.128374)
Neigh time (%) = 5.4582 (0.809333)
Comm  time (%) = 18.4758 (2.73955)
Outpt time (%) = 2.18157 (0.323479)
Other time (%) = 38.5512 (5.7163)

Nlocal:    5292.5 ave 5330 max 5264 min
Histogram: 1 1 1 0 1 0 1 0 0 1
Nghost:    7835.83 ave 7966 max 7705 min
Histogram: 1 0 1 1 1 0 0 0 0 2
Neighs:    302768 ave 309481 max 297447 min
Histogram: 2 0 0 1 0 1 0 1 0 1
FullNghs: 605536 ave 619227 max 594436 min
Histogram: 1 1 0 0 2 0 1 0 0 1

Total # of neighbors = 3633214
Ave neighs/atom = 114.414
Ave special neighs/atom = 5.09986
Neighbor list builds = 100
Dangerous builds = 100
velocity all zero linear
WARNING: Use special bonds = 0,1,1 with bond style fene (bond_fene.cpp:189)
Memory usage per processor = 18.891 Mbytes
Step sdpd_kin pTemp 
  596000 1.0315829e+09 1.0081066e+09 
  596100 1.0239671e+09 1.0002582e+09 
  596200 1.0368814e+09 1.0133426e+09 
  596300 1.0240597e+09 1.0002078e+09 
  596400 1.0274643e+09 1.0034626e+09 
  596500 1.0315766e+09 1.007817e+09 
  596600 1.0211767e+09 9.9765895e+08 
  596700 1.0129283e+09 9.8952673e+08 
  596800 1.0248855e+09 1.0012674e+09 
  596900 1.0300537e+09 1.0066079e+09 
  597000 1.0222745e+09 9.9858802e+08 
Loop time of 664.4 on 6 procs for 1000 steps with 31755 atoms

Pair  time (%) = 603.226 (90.7925)
Bond  time (%) = 0.805029 (0.121166)
Neigh time (%) = 5.18328 (0.780144)
Comm  time (%) = 19.4446 (2.92663)
Outpt time (%) = 2.10658 (0.317065)
Other time (%) = 33.6352 (5.06249)

Nlocal:    5292.5 ave 5377 max 5144 min
Histogram: 1 0 0 0 0 1 1 0 2 1
Nghost:    7747.17 ave 7802 max 7708 min
Histogram: 1 1 0 1 1 1 0 0 0 1
Neighs:    301865 ave 311745 max 287683 min
Histogram: 1 0 0 0 1 1 0 1 1 1
FullNghs: 603730 ave 625024 max 577790 min
Histogram: 1 0 0 1 1 0 1 1 0 1

Total # of neighbors = 3622378
Ave neighs/atom = 114.073
Ave special neighs/atom = 5.09986
Neighbor list builds = 100
Dangerous builds = 100
velocity all zero linear
WARNING: Use special bonds = 0,1,1 with bond style fene (bond_fene.cpp:189)
Memory usage per processor = 18.891 Mbytes
Step sdpd_kin pTemp 
  597000 1.0222742e+09 9.9858802e+08 
  597100 1.0323486e+09 1.0090512e+09 
  597200 1.0237271e+09 1.0004983e+09 
  597300 1.0250233e+09 1.0016447e+09 
  597400 1.0267511e+09 1.0034897e+09 
  597500 1.0228136e+09 9.9927386e+08 
  597600 1.0362703e+09 1.0125348e+09 
  597700 1.0205499e+09 9.9590166e+08 
  597800 1.0337682e+09 1.0095155e+09 
  597900 1.0288091e+09 1.0051135e+09 
  598000 1.0300063e+09 1.0063777e+09 
Loop time of 673.482 on 6 procs for 1000 steps with 31755 atoms

Pair  time (%) = 603.02 (89.5377)
Bond  time (%) = 0.798981 (0.118634)
Neigh time (%) = 5.15218 (0.765007)
Comm  time (%) = 28.7078 (4.2626)
Outpt time (%) = 2.12001 (0.314784)
Other time (%) = 33.6824 (5.00123)

Nlocal:    5292.5 ave 5380 max 5210 min
Histogram: 2 1 0 0 0 0 0 1 1 1
Nghost:    7725.17 ave 7869 max 7573 min
Histogram: 1 0 1 1 0 1 0 0 0 2
Neighs:    302446 ave 311516 max 290499 min
Histogram: 1 0 1 1 0 0 0 0 1 2
FullNghs: 604891 ave 622864 max 581721 min
Histogram: 1 1 0 1 0 0 0 0 1 2

Total # of neighbors = 3629346
Ave neighs/atom = 114.292
Ave special neighs/atom = 5.09986
Neighbor list builds = 100
Dangerous builds = 100
velocity all zero linear
WARNING: Use special bonds = 0,1,1 with bond style fene (bond_fene.cpp:189)
Memory usage per processor = 18.1281 Mbytes
Step sdpd_kin pTemp 
  598000 1.0300058e+09 1.0063777e+09 
  598100 1.0296596e+09 1.0063322e+09 
  598200 1.027291e+09 1.0032408e+09 
  598300 1.0258647e+09 1.002471e+09 
  598400 1.0293398e+09 1.005657e+09 
  598500 1.0275947e+09 1.004038e+09 
  598600 1.0283431e+09 1.0049297e+09 
  598700 1.0299878e+09 1.0061615e+09 
  598800 1.0250422e+09 1.0009774e+09 
  598900 1.0290071e+09 1.0049053e+09 
  599000 1.0203082e+09 9.9614241e+08 
Loop time of 672.736 on 6 procs for 1000 steps with 31755 atoms

Pair  time (%) = 603.048 (89.6412)
Bond  time (%) = 0.796874 (0.118453)
Neigh time (%) = 5.18928 (0.77137)
Comm  time (%) = 26.509 (3.94048)
Outpt time (%) = 2.11372 (0.314198)
Other time (%) = 35.0785 (5.2143)

Nlocal:    5292.5 ave 5406 max 5190 min
Histogram: 1 1 0 0 1 1 1 0 0 1
Nghost:    7773.83 ave 8095 max 7581 min
Histogram: 2 0 1 1 0 1 0 0 0 1
Neighs:    301958 ave 314844 max 290049 min
Histogram: 2 0 0 1 0 0 1 0 1 1
FullNghs: 603917 ave 630030 max 580242 min
Histogram: 2 0 0 1 0 0 1 0 1 1

Total # of neighbors = 3623500
Ave neighs/atom = 114.108
Ave special neighs/atom = 5.09986
Neighbor list builds = 100
Dangerous builds = 100
velocity all zero linear
WARNING: Use special bonds = 0,1,1 with bond style fene (bond_fene.cpp:189)
Memory usage per processor = 18.1281 Mbytes
Step sdpd_kin pTemp 
  599000 1.0203081e+09 9.9614241e+08 
  599100 1.0323136e+09 1.0081222e+09 
  599200 1.0244667e+09 1.0001645e+09 
  599300 1.0233562e+09 9.9894357e+08 
  599400 1.0291337e+09 1.0044107e+09 
  599500  1.02953e+09 1.0052874e+09 
  599600 1.0286675e+09 1.0035042e+09 
  599700 1.0349731e+09 1.0101314e+09 
  599800 1.0409535e+09 1.016157e+09 
  599900 1.0236934e+09 9.9872492e+08 
  600000 1.0276711e+09 1.0026271e+09 
Loop time of 683.724 on 6 procs for 1000 steps with 31755 atoms

Pair  time (%) = 602.354 (88.099)
Bond  time (%) = 0.796418 (0.116482)
Neigh time (%) = 5.16889 (0.755992)
Comm  time (%) = 39.2907 (5.74657)
Outpt time (%) = 2.14569 (0.313825)
Other time (%) = 33.9681 (4.9681)

Nlocal:    5292.5 ave 5482 max 5109 min
Histogram: 1 0 2 0 0 1 0 0 0 2
Nghost:    7693.83 ave 7902 max 7532 min
Histogram: 1 2 0 0 1 0 0 0 1 1
Neighs:    302506 ave 321958 max 279801 min
Histogram: 1 0 1 1 0 0 1 0 0 2
FullNghs: 605013 ave 646139 max 558856 min
Histogram: 1 0 1 1 0 0 0 1 0 2

Total # of neighbors = 3630078
Ave neighs/atom = 114.315
Ave special neighs/atom = 5.09986
Neighbor list builds = 100
Dangerous builds = 99
velocity all zero linear
WARNING: Use special bonds = 0,1,1 with bond style fene (bond_fene.cpp:189)
Memory usage per processor = 18.1281 Mbytes
Step sdpd_kin pTemp 
  600000 1.0276711e+09 1.0026271e+09 
  600100 1.0297823e+09 1.0051304e+09 
  600200 1.0237085e+09 9.9904324e+08 
  600300 1.0261906e+09 1.0014654e+09 
  600400 1.033306e+09 1.0087231e+09 
  600500 1.0326396e+09 1.0084716e+09 
  600600  1.02916e+09 1.0046306e+09 
  600700 1.022987e+09 9.9887694e+08 
  600800 1.0205132e+09 9.9641981e+08 
  600900 1.0199406e+09 9.9569537e+08 
  601000 1.0233445e+09 9.9904591e+08 
Loop time of 694.773 on 6 procs for 1000 steps with 31755 atoms

Pair  time (%) = 605.039 (87.0845)
Bond  time (%) = 0.808697 (0.116397)
Neigh time (%) = 5.17411 (0.74472)
Comm  time (%) = 46.7004 (6.72168)
Outpt time (%) = 2.12395 (0.305704)
Other time (%) = 34.9264 (5.02702)

Nlocal:    5292.5 ave 5558 max 5036 min
Histogram: 1 0 1 0 2 0 0 1 0 1
Nghost:    7671.67 ave 7965 max 7514 min
Histogram: 1 2 0 1 1 0 0 0 0 1
Neighs:    302071 ave 325900 max 276372 min
Histogram: 1 0 1 0 1 1 0 0 1 1
FullNghs: 604142 ave 653763 max 550999 min
Histogram: 1 0 1 0 1 1 0 0 1 1

Total # of neighbors = 3624850
Ave neighs/atom = 114.151
Ave special neighs/atom = 5.09986
Neighbor list builds = 100
Dangerous builds = 100
velocity all zero linear
WARNING: Use special bonds = 0,1,1 with bond style fene (bond_fene.cpp:189)
Memory usage per processor = 18.891 Mbytes
Step sdpd_kin pTemp 
  601000 1.0233444e+09 9.9904591e+08 
  601100 1.0301077e+09 1.0063958e+09 
  601200 1.0293419e+09 1.005244e+09 
  601300 1.0292951e+09 1.0049129e+09 
  601400 1.0338156e+09 1.0096372e+09 
  601500 1.0261989e+09 1.002663e+09 
  601600 1.0334592e+09 1.0091735e+09 
  601700 1.0189757e+09 9.9510698e+08 
  601800 1.0270552e+09 1.0030954e+09 
  601900 1.0314333e+09 1.0075836e+09 
  602000 1.0255876e+09 1.0013962e+09 
Loop time of 701.217 on 6 procs for 1000 steps with 31755 atoms

Pair  time (%) = 605.615 (86.3664)
Bond  time (%) = 0.814223 (0.116116)
Neigh time (%) = 5.2003 (0.741611)
Comm  time (%) = 52.3617 (7.46727)
Outpt time (%) = 2.1204 (0.302389)
Other time (%) = 35.1047 (5.00625)

Nlocal:    5292.5 ave 5538 max 5074 min
Histogram: 2 0 0 0 1 1 0 1 0 1
Nghost:    7630.67 ave 7809 max 7253 min
Histogram: 1 0 0 0 0 1 0 1 1 2
Neighs:    303581 ave 325372 max 284067 min
Histogram: 1 1 0 1 0 1 0 0 0 2
FullNghs: 607162 ave 650529 max 567409 min
Histogram: 2 0 0 1 0 1 0 0 1 1

Total # of neighbors = 3642972
Ave neighs/atom = 114.721
Ave special neighs/atom = 5.09986
Neighbor list builds = 100
Dangerous builds = 100
velocity all zero linear
WARNING: Use special bonds = 0,1,1 with bond style fene (bond_fene.cpp:189)
Memory usage per processor = 18.891 Mbytes
Step sdpd_kin pTemp 
  602000 1.0255874e+09 1.0013962e+09 
  602100 1.028632e+09 1.0039893e+09 
  602200 1.029878e+09 1.0054036e+09 
  602300 1.0244444e+09 9.9981798e+08 
  602400 1.0327236e+09 1.0079228e+09 
  602500 1.0195086e+09 9.9454021e+08 
  602600 1.0294351e+09 1.0043063e+09 
  602700 1.0208562e+09 9.9626682e+08 
  602800 1.0206518e+09 9.9615451e+08 
  602900 1.0293364e+09 1.005223e+09 
  603000 1.026738e+09 1.0020338e+09 
Loop time of 680.236 on 6 procs for 1000 steps with 31755 atoms

Pair  time (%) = 604.076 (88.8038)
Bond  time (%) = 0.801922 (0.117889)
Neigh time (%) = 5.16635 (0.759493)
Comm  time (%) = 33.7448 (4.96075)
Outpt time (%) = 2.11113 (0.310352)
Other time (%) = 34.3362 (5.04768)

Nlocal:    5292.5 ave 5470 max 5138 min
Histogram: 1 0 0 2 0 2 0 0 0 1
Nghost:    7700.67 ave 7864 max 7341 min
Histogram: 1 0 0 0 0 1 0 1 1 2
Neighs:    302509 ave 323144 max 285388 min
Histogram: 1 0 0 2 1 1 0 0 0 1
FullNghs: 605017 ave 644948 max 571615 min
Histogram: 1 0 0 2 1 1 0 0 0 1

Total # of neighbors = 3630104
Ave neighs/atom = 114.316
Ave special neighs/atom = 5.09986
Neighbor list builds = 100
Dangerous builds = 100
velocity all zero linear
WARNING: Use special bonds = 0,1,1 with bond style fene (bond_fene.cpp:189)
Memory usage per processor = 18.891 Mbytes
Step sdpd_kin pTemp 
  603000 1.0267376e+09 1.0020338e+09 
  603100 1.0279525e+09 1.0038632e+09 
  603200 1.0320672e+09 1.0082828e+09 
  603300 1.0260345e+09 1.0022181e+09 
  603400 1.0147545e+09 9.9038081e+08 
  603500 1.0232498e+09 9.9937533e+08 
  603600 1.0200895e+09 9.9616601e+08 
  603700 1.0301523e+09 1.0068277e+09 
  603800 1.0260115e+09 1.0026948e+09 
  603900 1.0238461e+09 1.0002259e+09 
  604000 1.0192417e+09 9.9525953e+08 
Loop time of 678.274 on 6 procs for 1000 steps with 31755 atoms

Pair  time (%) = 602.435 (88.8189)
Bond  time (%) = 0.791341 (0.11667)
Neigh time (%) = 5.13919 (0.757687)
Comm  time (%) = 34.3801 (5.06876)
Outpt time (%) = 2.10213 (0.309924)
Other time (%) = 33.4257 (4.92805)

Nlocal:    5292.5 ave 5390 max 5194 min
Histogram: 2 0 0 0 1 1 0 0 0 2
Nghost:    7684 ave 7983 max 7518 min
Histogram: 2 2 0 0 0 0 0 0 1 1
Neighs:    301969 ave 313937 max 289453 min
Histogram: 1 0 2 0 0 1 0 0 0 2
FullNghs: 603938 ave 627583 max 580984 min
Histogram: 1 1 1 0 0 1 0 0 0 2

Total # of neighbors = 3623630
Ave neighs/atom = 114.112
Ave special neighs/atom = 5.09986
Neighbor list builds = 100
Dangerous builds = 100
velocity all zero linear
WARNING: Use special bonds = 0,1,1 with bond style fene (bond_fene.cpp:189)
Memory usage per processor = 18.891 Mbytes
Step sdpd_kin pTemp 
  604000 1.0192412e+09 9.9525953e+08 
  604100 1.0294091e+09 1.0057943e+09 
  604200 1.0343296e+09 1.0107919e+09 
  604300 1.0295684e+09 1.0054964e+09 
  604400 1.0383683e+09 1.014106e+09 
  604500 1.0251727e+09 1.0011472e+09 
  604600 1.0206952e+09 9.9618083e+08 
  604700 1.0239894e+09 9.9985023e+08 
  604800 1.0241689e+09  1.00017e+09 
  604900 1.0247827e+09 1.0013328e+09 
  605000 1.0214678e+09 9.9828762e+08 
Loop time of 682.776 on 6 procs for 1000 steps with 31755 atoms

Pair  time (%) = 602.539 (88.2485)
Bond  time (%) = 0.792545 (0.116077)
Neigh time (%) = 5.16252 (0.756108)
Comm  time (%) = 38.0829 (5.57766)
Outpt time (%) = 2.10614 (0.308467)
Other time (%) = 34.0919 (4.99314)

Nlocal:    5292.5 ave 5478 max 5220 min
Histogram: 2 1 2 0 0 0 0 0 0 1
Nghost:    7695 ave 7778 max 7470 min
Histogram: 1 0 0 0 0 0 1 0 1 3
Neighs:    302662 ave 327492 max 292807 min
Histogram: 3 0 2 0 0 0 0 0 0 1
FullNghs: 605324 ave 654807 max 586307 min
Histogram: 3 0 1 1 0 0 0 0 0 1

Total # of neighbors = 3631946
Ave neighs/atom = 114.374
Ave special neighs/atom = 5.09986
Neighbor list builds = 100
Dangerous builds = 100
velocity all zero linear
WARNING: Use special bonds = 0,1,1 with bond style fene (bond_fene.cpp:189)
Memory usage per processor = 18.891 Mbytes
Step sdpd_kin pTemp 
  605000 1.0214674e+09 9.9828762e+08 
  605100 1.0321656e+09 1.0083332e+09 
  605200 1.0302762e+09 1.0066952e+09 
  605300 1.0342869e+09 1.0104817e+09 
  605400 1.0252032e+09 1.0009101e+09 
  605500 1.0340342e+09 1.0097179e+09 
  605600 1.0197667e+09 9.9471755e+08 
  605700 1.0293276e+09 1.0050709e+09 
  605800 1.0360836e+09 1.011483e+09 
  605900 1.0291883e+09 1.0047637e+09 
  606000 1.0288192e+09 1.0049581e+09 
Loop time of 684.571 on 6 procs for 1000 steps with 31755 atoms

Pair  time (%) = 604.302 (88.2746)
Bond  time (%) = 0.799988 (0.11686)
Neigh time (%) = 5.17507 (0.755959)
Comm  time (%) = 37.4099 (5.46472)
Outpt time (%) = 2.10394 (0.307337)
Other time (%) = 34.78 (5.08055)

Nlocal:    5292.5 ave 5444 max 5174 min
Histogram: 1 0 0 2 2 0 0 0 0 1
Nghost:    7772.67 ave 7916 max 7539 min
Histogram: 1 0 1 0 0 0 0 1 1 2
Neighs:    302871 ave 319823 max 290437 min
Histogram: 1 0 1 1 1 1 0 0 0 1
FullNghs: 605741 ave 639683 max 584019 min
Histogram: 1 0 1 2 1 0 0 0 0 1

Total # of neighbors = 3634448
Ave neighs/atom = 114.453
Ave special neighs/atom = 5.09986
Neighbor list builds = 100
Dangerous builds = 100
velocity all zero linear
WARNING: Use special bonds = 0,1,1 with bond style fene (bond_fene.cpp:189)
Memory usage per processor = 18.891 Mbytes
Step sdpd_kin pTemp 
  606000 1.0288188e+09 1.0049581e+09 
  606100 1.0246323e+09  1.00091e+09 
  606200 1.0308058e+09 1.0069612e+09 
  606300 1.0185389e+09 9.9557206e+08 
  606400 1.0209886e+09 9.9806594e+08 
  606500 1.0219913e+09 9.9870237e+08 
  606600 1.0294153e+09 1.006088e+09 
  606700 1.0282716e+09 1.0048848e+09 
  606800 1.0287221e+09 1.0055492e+09 
  606900 1.0260624e+09 1.0035477e+09 
  607000 1.0248515e+09 1.0023693e+09 
Loop time of 667.288 on 6 procs for 1000 steps with 31755 atoms

Pair  time (%) = 603.592 (90.4544)
Bond  time (%) = 0.808513 (0.121164)
Neigh time (%) = 5.17102 (0.77493)
Comm  time (%) = 21.9003 (3.28199)
Outpt time (%) = 2.10528 (0.315498)
Other time (%) = 33.7112 (5.05197)

Nlocal:    5292.5 ave 5436 max 5149 min
Histogram: 2 0 0 0 1 0 0 2 0 1
Nghost:    7720.67 ave 8008 max 7519 min
Histogram: 1 1 1 1 0 0 0 1 0 1
Neighs:    303280 ave 314114 max 290799 min
Histogram: 1 1 0 0 1 0 1 0 0 2
FullNghs: 606560 ave 627990 max 581659 min
Histogram: 1 1 0 0 1 0 1 0 0 2

Total # of neighbors = 3639360
Ave neighs/atom = 114.607
Ave special neighs/atom = 5.09986
Neighbor list builds = 100
Dangerous builds = 100
velocity all zero linear
WARNING: Use special bonds = 0,1,1 with bond style fene (bond_fene.cpp:189)
Memory usage per processor = 18.891 Mbytes
Step sdpd_kin pTemp 
  607000 1.0248513e+09 1.0023693e+09 
  607100 1.0198656e+09 9.9697785e+08 
  607200 1.0215128e+09 9.9928841e+08 
  607300 1.0256417e+09 1.0026671e+09 
  607400 1.0357488e+09 1.0124861e+09 
  607500 1.0307628e+09 1.0072007e+09 
  607600 1.0289429e+09 1.0058943e+09 
  607700 1.0275538e+09 1.0048454e+09 
  607800 1.0259588e+09 1.0032852e+09 
  607900 1.0214462e+09 9.9914239e+08 
  608000 1.0241737e+09 1.0012318e+09 
Loop time of 673.781 on 6 procs for 1000 steps with 31755 atoms

Pair  time (%) = 604.232 (89.6777)
Bond  time (%) = 0.798197 (0.118465)
Neigh time (%) = 5.14288 (0.763286)
Comm  time (%) = 26.9984 (4.007)
Outpt time (%) = 2.09848 (0.311448)
Other time (%) = 34.5118 (5.12211)

Nlocal:    5292.5 ave 5430 max 5089 min
Histogram: 1 0 0 1 0 0 2 0 1 1
Nghost:    7740.33 ave 7890 max 7614 min
Histogram: 1 1 0 1 0 1 0 1 0 1
Neighs:    302472 ave 316515 max 283728 min
Histogram: 1 0 1 0 0 1 0 1 1 1
FullNghs: 604945 ave 632974 max 567853 min
Histogram: 1 0 1 0 1 0 0 1 1 1

Total # of neighbors = 3629670
Ave neighs/atom = 114.302
Ave special neighs/atom = 5.09986
Neighbor list builds = 100
Dangerous builds = 100
velocity all zero linear
WARNING: Use special bonds = 0,1,1 with bond style fene (bond_fene.cpp:189)
Memory usage per processor = 18.891 Mbytes
Step sdpd_kin pTemp 
  608000 1.0241736e+09 1.0012318e+09 
  608100 1.0231338e+09 1.0003406e+09 
  608200 1.0254873e+09 1.0028844e+09 
  608300 1.0197103e+09 9.9711366e+08 
  608400  1.02992e+09 1.0069296e+09 
  608500 1.0302432e+09  1.00777e+09 
  608600 1.0274455e+09 1.0051053e+09 
  608700 1.0227475e+09 1.0004012e+09 
  608800 1.0220164e+09 9.9886563e+08 
  608900 1.0264552e+09 1.0030516e+09 
  609000 1.0196939e+09 9.9607126e+08 
Loop time of 679.655 on 6 procs for 1000 steps with 31755 atoms

Pair  time (%) = 602.675 (88.6736)
Bond  time (%) = 0.793964 (0.116819)
Neigh time (%) = 5.14515 (0.757024)
Comm  time (%) = 35.278 (5.19057)
Outpt time (%) = 2.0956 (0.308333)
Other time (%) = 33.668 (4.95369)

Nlocal:    5292.5 ave 5504 max 5203 min
Histogram: 2 2 0 0 1 0 0 0 0 1
Nghost:    7895.83 ave 8198 max 7754 min
Histogram: 2 0 2 1 0 0 0 0 0 1
Neighs:    302345 ave 318993 max 295007 min
Histogram: 3 0 1 0 1 0 0 0 0 1
FullNghs: 604690 ave 637499 max 587179 min
Histogram: 2 1 0 1 0 1 0 0 0 1

Total # of neighbors = 3628138
Ave neighs/atom = 114.254
Ave special neighs/atom = 5.09986
Neighbor list builds = 100
Dangerous builds = 100
velocity all zero linear
WARNING: Use special bonds = 0,1,1 with bond style fene (bond_fene.cpp:189)
Memory usage per processor = 18.891 Mbytes
Step sdpd_kin pTemp 
  609000 1.0196938e+09 9.9607126e+08 
  609100 1.0176603e+09 9.9473977e+08 
  609200 1.0285938e+09 1.0055032e+09 
  609300 1.0317664e+09 1.0087416e+09 
  609400 1.0195989e+09 9.9658447e+08 
  609500 1.0265104e+09 1.0031284e+09 
  609600 1.0242642e+09 1.0010236e+09 
  609700 1.028503e+09 1.0051817e+09 
  609800 1.0384432e+09 1.0150189e+09 
  609900 1.0312452e+09 1.0076024e+09 
  610000 1.021289e+09 9.9724634e+08 
Loop time of 692.433 on 6 procs for 1000 steps with 31755 atoms

Pair  time (%) = 610.487 (88.1655)
Bond  time (%) = 0.844355 (0.12194)
Neigh time (%) = 5.22828 (0.755059)
Comm  time (%) = 36.0193 (5.20184)
Outpt time (%) = 2.15767 (0.311607)
Other time (%) = 37.6966 (5.44408)

Nlocal:    5292.5 ave 5394 max 5063 min
Histogram: 1 0 0 0 0 0 1 1 1 2
Nghost:    7826.67 ave 8023 max 7637 min
Histogram: 1 0 1 0 2 0 0 1 0 1
Neighs:    302260 ave 314109 max 280016 min
Histogram: 1 0 0 0 0 1 1 0 2 1
FullNghs: 604520 ave 627034 max 560076 min
Histogram: 1 0 0 0 0 1 1 0 2 1

Total # of neighbors = 3627120
Ave neighs/atom = 114.222
Ave special neighs/atom = 5.09986
Neighbor list builds = 100
Dangerous builds = 99
velocity all zero linear
WARNING: Use special bonds = 0,1,1 with bond style fene (bond_fene.cpp:189)
Memory usage per processor = 18.891 Mbytes
Step sdpd_kin pTemp 
  610000 1.021289e+09 9.9724634e+08 
  610100 1.0215374e+09 9.9846623e+08 
  610200 1.026347e+09 1.0030081e+09 
  610300 1.0333851e+09 1.0102341e+09 
  610400 1.0234209e+09 1.0003472e+09 
  610500 1.0212856e+09 9.978512e+08 
  610600 1.0275612e+09 1.0041449e+09 
  610700 1.026692e+09 1.0030176e+09 
  610800 1.0207632e+09 9.9669273e+08 
  610900 1.0317732e+09 1.0077407e+09 
  611000 1.0256069e+09 1.001772e+09 
Loop time of 689.819 on 6 procs for 1000 steps with 31755 atoms

Pair  time (%) = 609.833 (88.4048)
Bond  time (%) = 0.835455 (0.121112)
Neigh time (%) = 5.23345 (0.75867)
Comm  time (%) = 34.5107 (5.00287)
Outpt time (%) = 2.11995 (0.307319)
Other time (%) = 37.286 (5.40519)

Nlocal:    5292.5 ave 5397 max 5083 min
Histogram: 1 0 0 0 1 0 0 1 2 1
Nghost:    7889.33 ave 8227 max 7657 min
Histogram: 1 1 1 0 1 1 0 0 0 1
Neighs:    302700 ave 313402 max 280520 min
Histogram: 1 0 0 0 0 1 0 1 1 2
FullNghs: 605399 ave 626075 max 559235 min
Histogram: 1 0 0 0 0 1 0 1 1 2

Total # of neighbors = 3632394
Ave neighs/atom = 114.388
Ave special neighs/atom = 5.09986
Neighbor list builds = 100
Dangerous builds = 100
velocity all zero linear
WARNING: Use special bonds = 0,1,1 with bond style fene (bond_fene.cpp:189)
Memory usage per processor = 18.891 Mbytes
Step sdpd_kin pTemp 
  611000 1.0256069e+09 1.001772e+09 
  611100 1.0308119e+09 1.0069313e+09 
  611200 1.032553e+09 1.0087757e+09 
  611300 1.031598e+09 1.0076994e+09 
  611400 1.0297736e+09 1.0058262e+09 
  611500 1.0253709e+09 1.0011064e+09 
  611600 1.0193623e+09 9.9527049e+08 
  611700 1.0188349e+09 9.9440954e+08 
  611800 1.0244974e+09 1.0000912e+09 
  611900 1.0333506e+09 1.0087922e+09 
  612000 1.0277852e+09 1.0035615e+09 
Loop time of 684.829 on 6 procs for 1000 steps with 31755 atoms

Pair  time (%) = 607.04 (88.6411)
Bond  time (%) = 0.821058 (0.119893)
Neigh time (%) = 5.21205 (0.761074)
Comm  time (%) = 33.8138 (4.93755)
Outpt time (%) = 2.09825 (0.30639)
Other time (%) = 35.8436 (5.23395)

Nlocal:    5292.5 ave 5478 max 4980 min
Histogram: 1 0 0 0 1 0 1 1 1 1
Nghost:    7830.83 ave 7993 max 7626 min
Histogram: 1 1 0 0 0 0 2 0 0 2
Neighs:    301908 ave 324787 max 268222 min
Histogram: 1 0 0 0 0 2 1 0 1 1
FullNghs: 603816 ave 648044 max 535773 min
Histogram: 1 0 0 0 0 1 2 0 1 1

Total # of neighbors = 3622898
Ave neighs/atom = 114.089
Ave special neighs/atom = 5.09986
Neighbor list builds = 100
Dangerous builds = 100
velocity all zero linear
WARNING: Use special bonds = 0,1,1 with bond style fene (bond_fene.cpp:189)
Memory usage per processor = 18.891 Mbytes
Step sdpd_kin pTemp 
  612000 1.0277851e+09 1.0035615e+09 
  612100 1.0285499e+09 1.0037196e+09 
  612200 1.0234949e+09 9.9923284e+08 
  612300 1.0354912e+09 1.0109866e+09 
  612400 1.0247492e+09 1.0005245e+09 
  612500 1.0265053e+09  1.00233e+09 
  612600 1.0306796e+09 1.0067726e+09 
  612700 1.0262972e+09 1.0028725e+09 
  612800 1.0208984e+09 9.9693504e+08 
  612900 1.0223052e+09 9.9756505e+08 
  613000 1.0221016e+09 9.9801051e+08 
Loop time of 693.853 on 6 procs for 1000 steps with 31755 atoms

Pair  time (%) = 606.502 (87.4107)
Bond  time (%) = 0.81382 (0.11729)
Neigh time (%) = 5.17058 (0.745198)
Comm  time (%) = 44.6675 (6.4376)
Outpt time (%) = 2.11234 (0.304436)
Other time (%) = 34.5869 (4.98476)

Nlocal:    5292.5 ave 5444 max 5028 min
Histogram: 1 0 0 0 0 0 2 2 0 1
Nghost:    7712 ave 7757 max 7596 min
Histogram: 1 0 0 0 0 0 0 2 1 2
Neighs:    303404 ave 324429 max 275231 min
Histogram: 1 0 0 0 1 0 3 0 0 1
FullNghs: 606809 ave 648108 max 550714 min
Histogram: 1 0 0 0 0 1 3 0 0 1

Total # of neighbors = 3640854
Ave neighs/atom = 114.655
Ave special neighs/atom = 5.09986
Neighbor list builds = 100
Dangerous builds = 100
velocity all zero linear
WARNING: Use special bonds = 0,1,1 with bond style fene (bond_fene.cpp:189)
Memory usage per processor = 18.891 Mbytes
Step sdpd_kin pTemp 
  613000 1.0221016e+09 9.9801051e+08 
  613100 1.0247294e+09 1.000808e+09 
  613200 1.0244732e+09 1.000321e+09 
  613300 1.0229364e+09 9.9926566e+08 
  613400 1.0246698e+09 1.0011196e+09 
  613500 1.0275929e+09 1.0035363e+09 
  613600 1.0323948e+09 1.0086388e+09 
  613700 1.027299e+09 1.0042834e+09 
  613800 1.0245656e+09 1.0016992e+09 
  613900 1.0192196e+09 9.9661636e+08 
  614000 1.0213237e+09 9.986911e+08 
Loop time of 684.954 on 6 procs for 1000 steps with 31755 atoms

Pair  time (%) = 604.614 (88.2708)
Bond  time (%) = 0.800384 (0.116852)
Neigh time (%) = 5.15766 (0.752993)
Comm  time (%) = 37.6558 (5.49757)
Outpt time (%) = 2.09798 (0.306295)
Other time (%) = 34.6277 (5.05548)

Nlocal:    5292.5 ave 5450 max 5163 min
Histogram: 1 1 1 0 0 1 1 0 0 1
Nghost:    7709.33 ave 7867 max 7520 min
Histogram: 1 0 1 0 0 1 1 0 1 1
Neighs:    301574 ave 316062 max 286079 min
Histogram: 1 0 1 1 0 1 0 0 0 2
FullNghs: 603147 ave 632965 max 571569 min
Histogram: 1 0 1 1 0 1 0 0 1 1

Total # of neighbors = 3618884
Ave neighs/atom = 113.963
Ave special neighs/atom = 5.09986
Neighbor list builds = 100
Dangerous builds = 100
velocity all zero linear
WARNING: Use special bonds = 0,1,1 with bond style fene (bond_fene.cpp:189)
Memory usage per processor = 18.891 Mbytes
Step sdpd_kin pTemp 
  614000 1.0213236e+09 9.986911e+08 
  614100 1.0238263e+09 1.0009015e+09 
  614200 1.0204835e+09 9.9800149e+08 
  614300 1.029281e+09 1.0070996e+09 
  614400 1.0129552e+09 9.9100717e+08 
  614500 1.0253292e+09 1.0034763e+09 
  614600 1.0254721e+09 1.0033862e+09 
  614700 1.0180457e+09 9.9604612e+08 
  614800 1.0207757e+09 9.9857019e+08 
  614900 1.0212763e+09 9.9895838e+08 
  615000 1.0222773e+09 9.9987428e+08 
Loop time of 681.344 on 6 procs for 1000 steps with 31755 atoms

Pair  time (%) = 604.432 (88.7116)
Bond  time (%) = 0.798383 (0.117178)
Neigh time (%) = 5.14543 (0.755189)
Comm  time (%) = 34.5331 (5.06838)
Outpt time (%) = 2.11151 (0.309904)
Other time (%) = 34.3243 (5.03774)

Nlocal:    5292.5 ave 5430 max 5177 min
Histogram: 1 1 0 0 1 2 0 0 0 1
Nghost:    7737.17 ave 7901 max 7567 min
Histogram: 1 0 0 1 2 0 0 1 0 1
Neighs:    301870 ave 318547 max 288333 min
Histogram: 1 0 1 0 2 1 0 0 0 1
FullNghs: 603740 ave 635082 max 574575 min
Histogram: 1 0 0 1 2 0 1 0 0 1

Total # of neighbors = 3622442
Ave neighs/atom = 114.075
Ave special neighs/atom = 5.09986
Neighbor list builds = 100
Dangerous builds = 100
velocity all zero linear
WARNING: Use special bonds = 0,1,1 with bond style fene (bond_fene.cpp:189)
Memory usage per processor = 18.891 Mbytes
Step sdpd_kin pTemp 
  615000 1.0222773e+09 9.9987428e+08 
  615100 1.0247646e+09  1.00217e+09 
  615200 1.0290735e+09 1.0067875e+09 
  615300 1.0307651e+09 1.0085121e+09 
  615400 1.0267364e+09 1.0038934e+09 
  615500 1.0285117e+09 1.0057541e+09 
  615600 1.0306192e+09 1.0077444e+09 
  615700 1.0231906e+09 1.000755e+09 
  615800 1.0163177e+09 9.9320703e+08 
  615900 1.0233959e+09 1.0006587e+09 
  616000 1.0420152e+09 1.0192527e+09 
Loop time of 672.719 on 6 procs for 1000 steps with 31755 atoms

Pair  time (%) = 604.364 (89.8389)
Bond  time (%) = 0.804766 (0.119629)
Neigh time (%) = 5.15497 (0.766288)
Comm  time (%) = 26.3518 (3.91721)
Outpt time (%) = 2.10855 (0.313436)
Other time (%) = 33.9354 (5.04451)

Nlocal:    5292.5 ave 5441 max 5212 min
Histogram: 2 1 0 1 0 1 0 0 0 1
Nghost:    7689 ave 7902 max 7549 min
Histogram: 2 1 0 0 1 0 0 1 0 1
Neighs:    302319 ave 313332 max 289647 min
Histogram: 1 0 0 1 1 1 0 0 1 1
FullNghs: 604638 ave 626071 max 579320 min
Histogram: 1 0 0 1 1 1 0 0 0 2

Total # of neighbors = 3627830
Ave neighs/atom = 114.244
Ave special neighs/atom = 5.09986
Neighbor list builds = 100
Dangerous builds = 100
velocity all zero linear
WARNING: Use special bonds = 0,1,1 with bond style fene (bond_fene.cpp:189)
Memory usage per processor = 18.891 Mbytes
Step sdpd_kin pTemp 
  616000 1.0420152e+09 1.0192527e+09 
  616100 1.0190055e+09 9.9626632e+08 
  616200 1.0262522e+09 1.0032036e+09 
  616300 1.0334057e+09 1.010492e+09 
  616400 1.0257465e+09 1.0031739e+09 
  616500 1.0288621e+09 1.0063263e+09 
  616600 1.0191555e+09 9.9663876e+08 
  616700 1.0157832e+09 9.9376693e+08 
  616800 1.029809e+09 1.0082414e+09 
  616900 1.0244249e+09 1.0025272e+09 
  617000 1.0260183e+09  1.00444e+09 
Loop time of 670.187 on 6 procs for 1000 steps with 31755 atoms

Pair  time (%) = 603.86 (90.1032)
Bond  time (%) = 0.791514 (0.118103)
Neigh time (%) = 5.15409 (0.769053)
Comm  time (%) = 25.2807 (3.77218)
Outpt time (%) = 2.0921 (0.312167)
Other time (%) = 33.0087 (4.9253)

Nlocal:    5292.5 ave 5450 max 5172 min
Histogram: 2 1 0 0 1 0 0 0 0 2
Nghost:    7730 ave 7879 max 7488 min
Histogram: 1 0 0 0 0 2 0 1 1 1
Neighs:    303835 ave 317521 max 292001 min
Histogram: 2 0 0 1 0 1 0 0 1 1
FullNghs: 607670 ave 635907 max 585329 min
Histogram: 2 0 1 0 0 1 0 0 1 1

Total # of neighbors = 3646018
Ave neighs/atom = 114.817
Ave special neighs/atom = 5.09986
Neighbor list builds = 100
Dangerous builds = 100
velocity all zero linear
WARNING: Use special bonds = 0,1,1 with bond style fene (bond_fene.cpp:189)
Memory usage per processor = 18.891 Mbytes
Step sdpd_kin pTemp 
  617000 1.0260183e+09  1.00444e+09 
  617100 1.0163444e+09 9.950681e+08 
  617200 1.0251543e+09 1.0039765e+09 
  617300 1.0230228e+09 1.0015755e+09 
  617400 1.0227856e+09 1.0011698e+09 
  617500 1.0197614e+09 9.9755795e+08 
  617600 1.0284083e+09 1.0065682e+09 
  617700 1.0331137e+09 1.011528e+09 
  617800 1.0291963e+09 1.0074286e+09 
  617900 1.0211762e+09 9.9965982e+08 
  618000 1.0248848e+09 1.0028838e+09 
Loop time of 670.827 on 6 procs for 1000 steps with 31755 atoms

Pair  time (%) = 605.229 (90.2214)
Bond  time (%) = 0.797836 (0.118933)
Neigh time (%) = 5.15618 (0.76863)
Comm  time (%) = 24.0496 (3.58507)
Outpt time (%) = 2.08821 (0.311289)
Other time (%) = 33.506 (4.99473)

Nlocal:    5292.5 ave 5390 max 5177 min
Histogram: 1 1 0 0 0 2 0 0 0 2
Nghost:    7746 ave 7882 max 7613 min
Histogram: 1 0 1 0 2 0 0 1 0 1
Neighs:    303910 ave 314772 max 291686 min
Histogram: 1 1 0 0 0 1 1 1 0 1
FullNghs: 607821 ave 631352 max 581567 min
Histogram: 1 0 1 0 0 2 0 1 0 1

Total # of neighbors = 3646926
Ave neighs/atom = 114.846
Ave special neighs/atom = 5.09986
Neighbor list builds = 100
Dangerous builds = 100
velocity all zero linear
WARNING: Use special bonds = 0,1,1 with bond style fene (bond_fene.cpp:189)
Memory usage per processor = 18.891 Mbytes
Step sdpd_kin pTemp 
  618000 1.0248848e+09 1.0028838e+09 
  618100 1.0231037e+09 1.0012624e+09 
  618200 1.0239784e+09 1.0020248e+09 
  618300 1.0279044e+09 1.0066932e+09 
  618400 1.0268731e+09 1.0055556e+09 
  618500 1.0250313e+09 1.003539e+09 
  618600 1.0171273e+09 9.9549808e+08 
  618700 1.0306386e+09 1.0089609e+09 
  618800 1.0302404e+09 1.0082036e+09 
  618900 1.0217479e+09 9.993898e+08 
  619000  1.02155e+09 9.9946766e+08 
Loop time of 676.751 on 6 procs for 1000 steps with 31755 atoms

Pair  time (%) = 606.844 (89.6701)
Bond  time (%) = 0.788076 (0.11645)
Neigh time (%) = 5.16686 (0.763479)
Comm  time (%) = 28.207 (4.168)
Outpt time (%) = 2.10299 (0.310748)
Other time (%) = 33.6425 (4.97117)

Nlocal:    5292.5 ave 5504 max 5164 min
Histogram: 1 1 1 1 1 0 0 0 0 1
Nghost:    7608.83 ave 7653 max 7505 min
Histogram: 1 0 0 0 1 0 0 0 1 3
Neighs:    303926 ave 324334 max 292339 min
Histogram: 1 2 0 1 1 0 0 0 0 1
FullNghs: 607851 ave 648823 max 584838 min
Histogram: 1 2 0 0 2 0 0 0 0 1

Total # of neighbors = 3647108
Ave neighs/atom = 114.851
Ave special neighs/atom = 5.09986
Neighbor list builds = 100
Dangerous builds = 100
velocity all zero linear
WARNING: Use special bonds = 0,1,1 with bond style fene (bond_fene.cpp:189)
Memory usage per processor = 18.891 Mbytes
Step sdpd_kin pTemp 
  619000  1.02155e+09 9.9946766e+08 
  619100 1.0229976e+09 1.0008061e+09 
  619200 1.0228744e+09 1.0005338e+09 
  619300 1.0247915e+09 1.0024921e+09 
  619400 1.0261036e+09 1.0042857e+09 
  619500 1.0259889e+09 1.0045653e+09 
  619600 1.0091949e+09 9.8788371e+08 
  619700 1.0248301e+09 1.0033526e+09 
  619800 1.0236497e+09 1.0025259e+09 
  619900 1.0222396e+09 1.001171e+09 
  620000 1.028513e+09 1.0075556e+09 
Loop time of 690.585 on 6 procs for 1000 steps with 31755 atoms

Pair  time (%) = 605.62 (87.6967)
Bond  time (%) = 0.788636 (0.114198)
Neigh time (%) = 5.14132 (0.744487)
Comm  time (%) = 43.8511 (6.34985)
Outpt time (%) = 2.12922 (0.308321)
Other time (%) = 33.0547 (4.78648)

Nlocal:    5292.5 ave 5543 max 5146 min
Histogram: 1 1 1 2 0 0 0 0 0 1
Nghost:    7547.5 ave 7709 max 7409 min
Histogram: 2 0 1 0 0 0 1 0 1 1
Neighs:    303123 ave 327842 max 292326 min
Histogram: 2 1 1 1 0 0 0 0 0 1
FullNghs: 606246 ave 654210 max 586313 min
Histogram: 2 2 0 1 0 0 0 0 0 1

Total # of neighbors = 3637478
Ave neighs/atom = 114.548
Ave special neighs/atom = 5.09986
Neighbor list builds = 100
Dangerous builds = 99
velocity all zero linear
WARNING: Use special bonds = 0,1,1 with bond style fene (bond_fene.cpp:189)
Memory usage per processor = 18.891 Mbytes
Step sdpd_kin pTemp 
  620000 1.028513e+09 1.0075556e+09 
  620100 1.023914e+09 1.0030009e+09 
  620200 1.0251224e+09 1.004218e+09 
  620300 1.0319297e+09 1.0113639e+09 
  620400 1.0368924e+09 1.0162316e+09 
  620500 1.0274862e+09 1.0069998e+09 
  620600 1.0238552e+09 1.003258e+09 
  620700 1.0156876e+09 9.9566849e+08 
  620800 1.0227814e+09 1.0026821e+09 
  620900 1.0226611e+09 1.002234e+09 
  621000 1.0281999e+09 1.0079752e+09 
Loop time of 691.793 on 6 procs for 1000 steps with 31755 atoms

Pair  time (%) = 604.593 (87.3951)
Bond  time (%) = 0.778748 (0.11257)
Neigh time (%) = 5.14928 (0.744338)
Comm  time (%) = 45.214 (6.53578)
Outpt time (%) = 2.12429 (0.30707)
Other time (%) = 33.9334 (4.90514)

Nlocal:    5292.5 ave 5446 max 5168 min
Histogram: 2 0 0 1 1 0 0 1 0 1
Nghost:    7661.33 ave 7823 max 7557 min
Histogram: 2 0 1 0 1 0 1 0 0 1
Neighs:    303184 ave 318302 max 287320 min
Histogram: 2 0 0 0 0 2 0 0 1 1
FullNghs: 606367 ave 636516 max 576627 min
Histogram: 2 0 0 0 1 1 0 0 1 1

Total # of neighbors = 3638204
Ave neighs/atom = 114.571
Ave special neighs/atom = 5.09986
Neighbor list builds = 100
Dangerous builds = 100
velocity all zero linear
WARNING: Use special bonds = 0,1,1 with bond style fene (bond_fene.cpp:189)
Memory usage per processor = 18.891 Mbytes
Step sdpd_kin pTemp 
  621000 1.0281999e+09 1.0079752e+09 
  621100 1.0282871e+09 1.0081613e+09 
  621200 1.0258706e+09 1.0056491e+09 
  621300 1.0237152e+09 1.0032518e+09 
  621400 1.0188019e+09 9.984241e+08 
  621500 1.0183033e+09 9.9813049e+08 
  621600 1.0261343e+09 1.0060503e+09 
  621700 1.0188334e+09 9.986567e+08 
  621800 1.0291804e+09 1.0084727e+09 
  621900 1.014906e+09 9.9422079e+08 
  622000 1.0238467e+09 1.0037293e+09 
Loop time of 676.18 on 6 procs for 1000 steps with 31755 atoms

Pair  time (%) = 602.795 (89.147)
Bond  time (%) = 0.786967 (0.116384)
Neigh time (%) = 5.1627 (0.763509)
Comm  time (%) = 31.1065 (4.60033)
Outpt time (%) = 2.10708 (0.311616)
Other time (%) = 34.2223 (5.06112)

Nlocal:    5292.5 ave 5486 max 5193 min
Histogram: 1 1 1 2 0 0 0 0 0 1
Nghost:    7760.83 ave 7880 max 7640 min
Histogram: 2 1 0 0 0 0 0 0 1 2
Neighs:    302437 ave 321879 max 289170 min
Histogram: 1 0 1 2 0 1 0 0 0 1
FullNghs: 604875 ave 646691 max 580044 min
Histogram: 1 0 2 1 1 0 0 0 0 1

Total # of neighbors = 3629248
Ave neighs/atom = 114.289
Ave special neighs/atom = 5.09986
Neighbor list builds = 100
Dangerous builds = 100
velocity all zero linear
WARNING: Use special bonds = 0,1,1 with bond style fene (bond_fene.cpp:189)
Memory usage per processor = 18.891 Mbytes
Step sdpd_kin pTemp 
  622000 1.0238466e+09 1.0037293e+09 
  622100 1.0193143e+09 9.9893052e+08 
  622200 1.0207768e+09 1.000203e+09 
  622300 1.0259623e+09 1.0052506e+09 
  622400 1.0204547e+09 9.9994629e+08 
  622500 1.0242101e+09 1.0039105e+09 
  622600 1.0243857e+09 1.0044306e+09 
  622700 1.0234906e+09 1.0026818e+09 
  622800 1.0180179e+09 9.9749394e+08 
  622900 1.0177415e+09 9.9761118e+08 
  623000 1.0244478e+09 1.0040226e+09 
Loop time of 693.239 on 6 procs for 1000 steps with 31755 atoms

Pair  time (%) = 604.111 (87.1433)
Bond  time (%) = 0.798042 (0.115118)
Neigh time (%) = 5.15376 (0.743432)
Comm  time (%) = 46.6769 (6.73316)
Outpt time (%) = 2.10964 (0.304316)
Other time (%) = 34.3896 (4.96071)

Nlocal:    5292.5 ave 5490 max 5215 min
Histogram: 3 1 0 0 1 0 0 0 0 1
Nghost:    7726.67 ave 7886 max 7521 min
Histogram: 1 0 0 0 1 1 2 0 0 1
Neighs:    302757 ave 323929 max 293479 min
Histogram: 2 1 1 0 1 0 0 0 0 1
FullNghs: 605514 ave 646698 max 587899 min
Histogram: 3 0 1 0 1 0 0 0 0 1

Total # of neighbors = 3633082
Ave neighs/atom = 114.41
Ave special neighs/atom = 5.09986
Neighbor list builds = 100
Dangerous builds = 100
velocity all zero linear
WARNING: Use special bonds = 0,1,1 with bond style fene (bond_fene.cpp:189)
Memory usage per processor = 18.891 Mbytes
Step sdpd_kin pTemp 
  623000 1.0244476e+09 1.0040226e+09 
  623100 1.0224739e+09 1.0024825e+09 
  623200 1.0275208e+09 1.0070485e+09 
  623300 1.0139796e+09 9.9354147e+08 
  623400 1.0223897e+09 1.0019225e+09 
  623500 1.0221937e+09 1.0017216e+09 
  623600 1.0177386e+09 9.9737827e+08 
  623700 1.0143007e+09 9.9383427e+08 
  623800 1.028066e+09 1.0075505e+09 
  623900 1.0239778e+09 1.0036284e+09 
  624000 1.023723e+09 1.003433e+09 
Loop time of 682.923 on 6 procs for 1000 steps with 31755 atoms

Pair  time (%) = 603.955 (88.4369)
Bond  time (%) = 0.78761 (0.115329)
Neigh time (%) = 5.15291 (0.754539)
Comm  time (%) = 36.2529 (5.30849)
Outpt time (%) = 2.10059 (0.307588)
Other time (%) = 34.6732 (5.07718)

Nlocal:    5292.5 ave 5429 max 5158 min
Histogram: 1 1 0 1 0 0 0 2 0 1
Nghost:    7800.33 ave 7921 max 7713 min
Histogram: 1 1 0 1 1 1 0 0 0 1
Neighs:    302585 ave 319436 max 287574 min
Histogram: 2 0 0 0 1 0 1 1 0 1
FullNghs: 605171 ave 639538 max 575196 min
Histogram: 2 0 0 0 1 0 1 1 0 1

Total # of neighbors = 3631024
Ave neighs/atom = 114.345
Ave special neighs/atom = 5.09986
Neighbor list builds = 100
Dangerous builds = 100
velocity all zero linear
WARNING: Use special bonds = 0,1,1 with bond style fene (bond_fene.cpp:189)
Memory usage per processor = 18.891 Mbytes
Step sdpd_kin pTemp 
  624000 1.0237226e+09 1.003433e+09 
  624100 1.023267e+09 1.0028042e+09 
  624200 1.0219185e+09 1.0016551e+09 
  624300 1.0137144e+09 9.935157e+08 
  624400 1.0167712e+09 9.971671e+08 
  624500 1.0216157e+09 1.0020524e+09 
  624600 1.0285135e+09 1.0091883e+09 
  624700 1.0151333e+09 9.9532492e+08 
  624800 1.0238951e+09 1.0043977e+09 
  624900 1.0232696e+09 1.0036247e+09 
  625000 1.0288695e+09 1.0094257e+09 
Loop time of 682.35 on 6 procs for 1000 steps with 31755 atoms

Pair  time (%) = 603.159 (88.3944)
Bond  time (%) = 0.794556 (0.116444)
Neigh time (%) = 5.12626 (0.751265)
Comm  time (%) = 36.087 (5.28864)
Outpt time (%) = 2.10959 (0.309166)
Other time (%) = 35.0733 (5.14007)

Nlocal:    5292.5 ave 5493 max 5105 min
Histogram: 1 0 1 0 1 1 1 0 0 1
Nghost:    7867.17 ave 8072 max 7691 min
Histogram: 1 0 1 2 0 0 0 0 1 1
Neighs:    302591 ave 324279 max 286593 min
Histogram: 1 1 0 0 2 0 1 0 0 1
FullNghs: 605183 ave 646615 max 572298 min
Histogram: 1 1 0 0 2 0 1 0 0 1

Total # of neighbors = 3631096
Ave neighs/atom = 114.347
Ave special neighs/atom = 5.09986
Neighbor list builds = 100
Dangerous builds = 100
velocity all zero linear
WARNING: Use special bonds = 0,1,1 with bond style fene (bond_fene.cpp:189)
Memory usage per processor = 18.891 Mbytes
Step sdpd_kin pTemp 
  625000 1.0288695e+09 1.0094257e+09 
  625100 1.0192724e+09 9.9936445e+08 
  625200 1.0183744e+09 9.9891811e+08 
  625300 1.0223154e+09 1.0024008e+09 
  625400 1.0166594e+09 9.9717384e+08 
  625500 1.0196198e+09 1.0000168e+09 
  625600 1.0213997e+09 1.0012133e+09 
  625700 1.0269581e+09 1.0063702e+09 
  625800 1.0207327e+09 1.0004266e+09 
  625900 1.0259972e+09 1.005533e+09 
  626000 1.0147236e+09 9.9396333e+08 
Loop time of 670.002 on 6 procs for 1000 steps with 31755 atoms

Pair  time (%) = 601.833 (89.8255)
Bond  time (%) = 0.801441 (0.119618)
Neigh time (%) = 5.14529 (0.767951)
Comm  time (%) = 25.889 (3.86402)
Outpt time (%) = 2.10983 (0.3149)
Other time (%) = 34.2238 (5.10801)

Nlocal:    5292.5 ave 5416 max 5054 min
Histogram: 1 0 0 0 0 1 0 0 3 1
Nghost:    7805.33 ave 7980 max 7537 min
Histogram: 1 0 0 0 0 2 0 1 1 1
Neighs:    301395 ave 311456 max 281797 min
Histogram: 1 0 0 0 1 0 0 0 3 1
FullNghs: 602790 ave 621950 max 562277 min
Histogram: 1 0 0 0 1 0 0 0 2 2

Total # of neighbors = 3616742
Ave neighs/atom = 113.895
Ave special neighs/atom = 5.09986
Neighbor list builds = 100
Dangerous builds = 100
velocity all zero linear
WARNING: Use special bonds = 0,1,1 with bond style fene (bond_fene.cpp:189)
Memory usage per processor = 18.891 Mbytes
Step sdpd_kin pTemp 
  626000 1.0147236e+09 9.9396333e+08 
  626100 1.0335218e+09 1.0133323e+09 
  626200 1.0131939e+09 9.9336676e+08 
  626300 1.0225709e+09 1.0026928e+09 
  626400 1.0197266e+09 1.0000037e+09 
  626500 1.0255744e+09 1.0057713e+09 
  626600 1.0183349e+09 9.9796373e+08 
  626700 1.0315269e+09 1.0117297e+09 
  626800 1.023692e+09 1.0036642e+09 
  626900 1.0246789e+09 1.0047896e+09 
  627000 1.0217562e+09 1.0019218e+09 
Loop time of 666.781 on 6 procs for 1000 steps with 31755 atoms

Pair  time (%) = 598.822 (89.8079)
Bond  time (%) = 0.785525 (0.117809)
Neigh time (%) = 5.12368 (0.768421)
Comm  time (%) = 26.0856 (3.91217)
Outpt time (%) = 2.09025 (0.313485)
Other time (%) = 33.874 (5.08023)

Nlocal:    5292.5 ave 5422 max 5154 min
Histogram: 2 0 1 0 0 0 0 0 1 2
Nghost:    7829.83 ave 7920 max 7687 min
Histogram: 1 0 0 0 1 1 0 0 2 1
Neighs:    301334 ave 317124 max 284596 min
Histogram: 1 1 1 0 0 0 0 1 1 1
FullNghs: 602669 ave 631624 max 569280 min
Histogram: 1 1 1 0 0 0 0 0 1 2

Total # of neighbors = 3616012
Ave neighs/atom = 113.872
Ave special neighs/atom = 5.09986
Neighbor list builds = 100
Dangerous builds = 100
velocity all zero linear
WARNING: Use special bonds = 0,1,1 with bond style fene (bond_fene.cpp:189)
Memory usage per processor = 18.891 Mbytes
Step sdpd_kin pTemp 
  627000 1.021756e+09 1.0019218e+09 
  627100 1.0173048e+09 9.9749062e+08 
  627200 1.0212995e+09 1.001285e+09 
  627300 1.0251648e+09 1.0051778e+09 
  627400 1.0170631e+09 9.966491e+08 
  627500 1.0226032e+09 1.0022869e+09 
  627600 1.0256809e+09 1.004867e+09 
  627700 1.0201388e+09 9.9971661e+08 
  627800 1.0199404e+09 9.9977351e+08 
  627900 1.0194654e+09 9.9914187e+08 
  628000 1.0294331e+09 1.0087024e+09 
Loop time of 675.094 on 6 procs for 1000 steps with 31755 atoms

Pair  time (%) = 601.256 (89.0627)
Bond  time (%) = 0.786063 (0.116438)
Neigh time (%) = 5.11283 (0.757352)
Comm  time (%) = 32.3917 (4.7981)
Outpt time (%) = 2.09894 (0.310911)
Other time (%) = 33.4477 (4.95453)

Nlocal:    5292.5 ave 5417 max 5167 min
Histogram: 1 1 0 0 0 1 2 0 0 1
Nghost:    7791.67 ave 7921 max 7639 min
Histogram: 1 0 0 2 0 1 0 0 0 2
Neighs:    300942 ave 316492 max 287858 min
Histogram: 1 0 1 1 0 2 0 0 0 1
FullNghs: 601884 ave 631093 max 577389 min
Histogram: 1 1 0 1 0 1 1 0 0 1

Total # of neighbors = 3611306
Ave neighs/atom = 113.724
Ave special neighs/atom = 5.09986
Neighbor list builds = 100
Dangerous builds = 100
velocity all zero linear
WARNING: Use special bonds = 0,1,1 with bond style fene (bond_fene.cpp:189)
Memory usage per processor = 18.891 Mbytes
Step sdpd_kin pTemp 
  628000 1.0294328e+09 1.0087024e+09 
  628100 1.0234092e+09 1.003123e+09 
  628200 1.0177049e+09 9.9709839e+08 
  628300 1.0243615e+09 1.0034377e+09 
  628400 1.0199772e+09 9.989268e+08 
  628500 1.0196635e+09 9.9850596e+08 
  628600 1.0259597e+09 1.0045855e+09 
  628700 1.0256183e+09 1.0045052e+09 
  628800 1.0320576e+09 1.0112992e+09 
  628900 1.0310728e+09 1.0098526e+09 
  629000 1.0290794e+09  1.00678e+09 
Loop time of 674.497 on 6 procs for 1000 steps with 31755 atoms

Pair  time (%) = 599.108 (88.8229)
Bond  time (%) = 0.798988 (0.118457)
Neigh time (%) = 5.15088 (0.763663)
Comm  time (%) = 33.144 (4.91388)
Outpt time (%) = 2.11956 (0.314243)
Other time (%) = 34.1759 (5.06687)

Nlocal:    5292.5 ave 5448 max 5128 min
Histogram: 1 0 1 0 1 1 0 0 1 1
Nghost:    7871.83 ave 8044 max 7725 min
Histogram: 1 1 0 1 0 0 2 0 0 1
Neighs:    300095 ave 316087 max 285329 min
Histogram: 1 1 0 0 2 0 0 0 1 1
FullNghs: 600190 ave 630865 max 573773 min
Histogram: 2 0 0 0 2 0 0 0 1 1

Total # of neighbors = 3601140
Ave neighs/atom = 113.404
Ave special neighs/atom = 5.09986
Neighbor list builds = 100
Dangerous builds = 100
velocity all zero linear
WARNING: Use special bonds = 0,1,1 with bond style fene (bond_fene.cpp:189)
Memory usage per processor = 18.891 Mbytes
Step sdpd_kin pTemp 
  629000 1.0290791e+09  1.00678e+09 
  629100 1.0205659e+09 9.9901243e+08 
  629200 1.0232445e+09 1.001287e+09 
  629300 1.0336962e+09 1.0122545e+09 
  629400 1.0291481e+09 1.0076736e+09 
  629500 1.0168827e+09 9.9508131e+08 
  629600 1.0258223e+09 1.0046768e+09 
  629700 1.0214781e+09 9.9990475e+08 
  629800 1.0254341e+09 1.0041682e+09 
  629900 1.0286021e+09 1.0069344e+09 
  630000 1.0257679e+09 1.0042761e+09 
Loop time of 684.086 on 6 procs for 1000 steps with 31755 atoms

Pair  time (%) = 599.849 (87.6862)
Bond  time (%) = 0.794864 (0.116194)
Neigh time (%) = 5.13625 (0.750819)
Comm  time (%) = 42.5475 (6.21961)
Outpt time (%) = 2.1171 (0.309479)
Other time (%) = 33.6416 (4.91774)

Nlocal:    5292.5 ave 5463 max 5137 min
Histogram: 2 0 0 0 1 0 1 1 0 1
Nghost:    7758.5 ave 7905 max 7644 min
Histogram: 1 1 0 1 1 0 1 0 0 1
Neighs:    301487 ave 321480 max 284519 min
Histogram: 1 1 0 0 2 0 1 0 0 1
FullNghs: 602975 ave 643031 max 567773 min
Histogram: 1 1 0 0 1 1 1 0 0 1

Total # of neighbors = 3617848
Ave neighs/atom = 113.93
Ave special neighs/atom = 5.09986
Neighbor list builds = 100
Dangerous builds = 99
velocity all zero linear
WARNING: Use special bonds = 0,1,1 with bond style fene (bond_fene.cpp:189)
Memory usage per processor = 18.891 Mbytes
Step sdpd_kin pTemp 
  630000 1.0257677e+09 1.0042761e+09 
  630100 1.0217099e+09 1.0001787e+09 
  630200 1.0264653e+09 1.0047996e+09 
  630300 1.0276078e+09 1.0059338e+09 
  630400 1.0198594e+09 9.983289e+08 
  630500 1.0292986e+09 1.008122e+09 
  630600 1.0163434e+09 9.9463253e+08 
  630700 1.0236759e+09 1.0021418e+09 
  630800 1.0250485e+09 1.0029682e+09 
  630900 1.0305942e+09 1.0085686e+09 
  631000 1.0265072e+09 1.0042622e+09 
Loop time of 687.309 on 6 procs for 1000 steps with 31755 atoms

Pair  time (%) = 604.361 (87.9315)
Bond  time (%) = 0.811542 (0.118075)
Neigh time (%) = 5.16423 (0.75137)
Comm  time (%) = 40.1566 (5.84258)
Outpt time (%) = 2.11207 (0.307295)
Other time (%) = 34.7036 (5.0492)

Nlocal:    5292.5 ave 5470 max 5189 min
Histogram: 2 1 0 1 0 0 1 0 0 1
Nghost:    7772.33 ave 7926 max 7648 min
Histogram: 1 1 1 0 0 1 1 0 0 1
Neighs:    301850 ave 319117 max 289828 min
Histogram: 1 1 0 2 0 0 1 0 0 1
FullNghs: 603700 ave 637947 max 577663 min
Histogram: 1 1 0 2 0 0 1 0 0 1

Total # of neighbors = 3622198
Ave neighs/atom = 114.067
Ave special neighs/atom = 5.09986
Neighbor list builds = 100
Dangerous builds = 100
